.Version 8.8.4 of ABINIT

 ABINIT is a project of the Universite Catholique de Louvain,
 Corning Inc. and other collaborators, see ~abinit/doc/developers/contributors.txt .
 Please read ~abinit/doc/users/acknowledgments.html for suggested
 acknowledgments of the ABINIT effort.

.Starting date : Mon 31 Aug 2020.
- ( at 10h47 )

- The starting date is more than 2 years after the initial release
- of this version of ABINIT, namely Jul 2018.
- Note that the use beyond 3 years after the release will not be supported.
- Action: please, switch to a more recent version of ABINIT.

- input  file    -> run.in
- output file    -> run.out
- root for input  files -> in
- root for output files -> out

 DATASET   11 : space group P6_3 m c (#186); Bravais hP (primitive hexag.)
     intxc =       0    ionmov =       0      iscf =       7    lmnmax =       6
     lnmax =       6     mgfft =      50  mpssoang =       3    mqgrid =    3001
     natom =       4  nloc_mem =       1    nspden =       1   nspinor =       1
    nsppol =       1      nsym =      12    n1xccc =    2501    ntypat =       2
    occopt =       1   xclevel =       2
-    mband =          18        mffmem =           1         mkmem =           5
       mpw =        2450          nfft =       45000          nkpt =         240
  Rough estimation (10% accuracy) of disk space for files :

 DATASET   21 : space group P1 (#  1); Bravais aP (primitive triclinic)
     intxc =       0    ionmov =       0      iscf =       7    lmnmax =       6
     lnmax =       6     mgfft =      50  mpssoang =       3    mqgrid =    3001
     natom =       4  nloc_mem =       1    nspden =       1   nspinor =       1
    nsppol =       1      nsym =       1    n1xccc =    2501    ntypat =       2
    occopt =       1   xclevel =       2
-    mband =          18        mffmem =           1         mkmem =          43
       mpw =        2450          nfft =       45000          nkpt =        2048
  Rough estimation (10% accuracy) of disk space for files :

[...]

 DATASET   32 : space group P1 (#  1); Bravais aP (primitive triclinic)
     intxc =       0    ionmov =       0      iscf =       7    lmnmax =       6
     lnmax =       6     mgfft =      50  mpssoang =       3    mqgrid =    3001
     natom =       4  nloc_mem =       1    nspden =       1   nspinor =       1
    nsppol =       1      nsym =       1    n1xccc =    2501    ntypat =       2
    occopt =       1   xclevel =       2
-    mband =          18        mffmem =           1         mkmem =          43
       mpw =        2450          nfft =       45000          nkpt =        2048
  Rough estimation (10% accuracy) of disk space for files :

------------- Echo of variables that govern the present computation ------------
-
- outvars: echo of selected default values
-   iomode0 =  0 , fftalg0 =112 , wfoptalg0 =  0
-
- outvars: echo of global parameters not present in the input file
-  max_nthreads =    0
-
 -outvars: echo values of preprocessed input variables --------
            acell      6.0907877939E+00  6.0907877939E+00  9.9216853526E+00 Bohr
              amu      6.97230000E+01  1.40067400E+01
         berryopt11        -1
         berryopt21         4
         berryopt22         4
         berryopt31         4
         berryopt32         4
             ecut      2.93994603E+01 Hartree
           efield11    0.00000000E+00  0.00000000E+00  0.00000000E+00
           efield21    1.00000000E-07  1.00000000E-07  1.00000000E-07
           efield22    2.00000000E-07  2.00000000E-07  2.00000000E-07
           efield31   -1.00000000E-07 -1.00000000E-07 -1.00000000E-07
           efield32   -2.00000000E-07 -2.00000000E-07 -2.00000000E-07
-          fftalg         112
           getwfk11         0
           getwfk21        11
           getwfk22        21
           getwfk31        11
           getwfk32        31
              ixc          11
           jdtset       11   21   22   31   32
              kpt11    0.00000000E+00  0.00000000E+00  3.12500000E-02
                       6.25000000E-02  0.00000000E+00  3.12500000E-02
                       1.25000000E-01  0.00000000E+00  3.12500000E-02
                       1.87500000E-01  0.00000000E+00  3.12500000E-02
                       2.50000000E-01  0.00000000E+00  3.12500000E-02
                       3.12500000E-01  0.00000000E+00  3.12500000E-02
                       3.75000000E-01  0.00000000E+00  3.12500000E-02
                       4.37500000E-01  0.00000000E+00  3.12500000E-02
                       5.00000000E-01  0.00000000E+00  3.12500000E-02
                       6.25000000E-02  6.25000000E-02  3.12500000E-02
                       1.25000000E-01  6.25000000E-02  3.12500000E-02
                       1.87500000E-01  6.25000000E-02  3.12500000E-02
                       2.50000000E-01  6.25000000E-02  3.12500000E-02
                       3.12500000E-01  6.25000000E-02  3.12500000E-02
                       3.75000000E-01  6.25000000E-02  3.12500000E-02
                       4.37500000E-01  6.25000000E-02  3.12500000E-02
                       1.25000000E-01  1.25000000E-01  3.12500000E-02
                       1.87500000E-01  1.25000000E-01  3.12500000E-02
                       2.50000000E-01  1.25000000E-01  3.12500000E-02
                       3.12500000E-01  1.25000000E-01  3.12500000E-02
                       3.75000000E-01  1.25000000E-01  3.12500000E-02
                       4.37500000E-01  1.25000000E-01  3.12500000E-02
                       1.87500000E-01  1.87500000E-01  3.12500000E-02
                       2.50000000E-01  1.87500000E-01  3.12500000E-02
                       3.12500000E-01  1.87500000E-01  3.12500000E-02
                       3.75000000E-01  1.87500000E-01  3.12500000E-02
                       2.50000000E-01  2.50000000E-01  3.12500000E-02
                       3.12500000E-01  2.50000000E-01  3.12500000E-02
                       3.75000000E-01  2.50000000E-01  3.12500000E-02
                       3.12500000E-01  3.12500000E-01  3.12500000E-02
                       0.00000000E+00  0.00000000E+00  9.37500000E-02
                       6.25000000E-02  0.00000000E+00  9.37500000E-02
                       1.25000000E-01  0.00000000E+00  9.37500000E-02
                       1.87500000E-01  0.00000000E+00  9.37500000E-02
                       2.50000000E-01  0.00000000E+00  9.37500000E-02
                       3.12500000E-01  0.00000000E+00  9.37500000E-02
                       3.75000000E-01  0.00000000E+00  9.37500000E-02
                       4.37500000E-01  0.00000000E+00  9.37500000E-02
                       5.00000000E-01  0.00000000E+00  9.37500000E-02
                       6.25000000E-02  6.25000000E-02  9.37500000E-02
                       1.25000000E-01  6.25000000E-02  9.37500000E-02
                       1.87500000E-01  6.25000000E-02  9.37500000E-02
                       2.50000000E-01  6.25000000E-02  9.37500000E-02
                       3.12500000E-01  6.25000000E-02  9.37500000E-02
                       3.75000000E-01  6.25000000E-02  9.37500000E-02
                       4.37500000E-01  6.25000000E-02  9.37500000E-02
                       1.25000000E-01  1.25000000E-01  9.37500000E-02
                       1.87500000E-01  1.25000000E-01  9.37500000E-02
                       2.50000000E-01  1.25000000E-01  9.37500000E-02
                       3.12500000E-01  1.25000000E-01  9.37500000E-02
              kpt21    0.00000000E+00  0.00000000E+00  3.12500000E-02
                       6.25000000E-02  0.00000000E+00  3.12500000E-02
                       1.25000000E-01  0.00000000E+00  3.12500000E-02
                       1.87500000E-01  0.00000000E+00  3.12500000E-02
                       2.50000000E-01  0.00000000E+00  3.12500000E-02
                       3.12500000E-01  0.00000000E+00  3.12500000E-02
                       3.75000000E-01  0.00000000E+00  3.12500000E-02
                       4.37500000E-01  0.00000000E+00  3.12500000E-02
                       5.00000000E-01  0.00000000E+00  3.12500000E-02
                      -4.37500000E-01  0.00000000E+00  3.12500000E-02
                      -3.75000000E-01  0.00000000E+00  3.12500000E-02
                      -3.12500000E-01  0.00000000E+00  3.12500000E-02
                      -2.50000000E-01  0.00000000E+00  3.12500000E-02
                      -1.87500000E-01  0.00000000E+00  3.12500000E-02
                      -1.25000000E-01  0.00000000E+00  3.12500000E-02
                      -6.25000000E-02  0.00000000E+00  3.12500000E-02
                       0.00000000E+00  6.25000000E-02  3.12500000E-02
                       6.25000000E-02  6.25000000E-02  3.12500000E-02
                       1.25000000E-01  6.25000000E-02  3.12500000E-02
                       1.87500000E-01  6.25000000E-02  3.12500000E-02
                       2.50000000E-01  6.25000000E-02  3.12500000E-02
                       3.12500000E-01  6.25000000E-02  3.12500000E-02
                       3.75000000E-01  6.25000000E-02  3.12500000E-02
                       4.37500000E-01  6.25000000E-02  3.12500000E-02
                       5.00000000E-01  6.25000000E-02  3.12500000E-02
                      -4.37500000E-01  6.25000000E-02  3.12500000E-02
                      -3.75000000E-01  6.25000000E-02  3.12500000E-02
                      -3.12500000E-01  6.25000000E-02  3.12500000E-02
                      -2.50000000E-01  6.25000000E-02  3.12500000E-02
                      -1.87500000E-01  6.25000000E-02  3.12500000E-02
                      -1.25000000E-01  6.25000000E-02  3.12500000E-02
                      -6.25000000E-02  6.25000000E-02  3.12500000E-02
                       0.00000000E+00  1.25000000E-01  3.12500000E-02
                       6.25000000E-02  1.25000000E-01  3.12500000E-02
                       1.25000000E-01  1.25000000E-01  3.12500000E-02
                       1.87500000E-01  1.25000000E-01  3.12500000E-02
                       2.50000000E-01  1.25000000E-01  3.12500000E-02
                       3.12500000E-01  1.25000000E-01  3.12500000E-02
                       3.75000000E-01  1.25000000E-01  3.12500000E-02
                       4.37500000E-01  1.25000000E-01  3.12500000E-02
                       5.00000000E-01  1.25000000E-01  3.12500000E-02
                      -4.37500000E-01  1.25000000E-01  3.12500000E-02
                      -3.75000000E-01  1.25000000E-01  3.12500000E-02
                      -3.12500000E-01  1.25000000E-01  3.12500000E-02
                      -2.50000000E-01  1.25000000E-01  3.12500000E-02
                      -1.87500000E-01  1.25000000E-01  3.12500000E-02
                      -1.25000000E-01  1.25000000E-01  3.12500000E-02
                      -6.25000000E-02  1.25000000E-01  3.12500000E-02
                       0.00000000E+00  1.87500000E-01  3.12500000E-02
                       6.25000000E-02  1.87500000E-01  3.12500000E-02
              kpt22    0.00000000E+00  0.00000000E+00  3.12500000E-02
                       6.25000000E-02  0.00000000E+00  3.12500000E-02
                       1.25000000E-01  0.00000000E+00  3.12500000E-02
[...]
                      -3.75000000E-01  0.00000000E+00  3.12500000E-02
                      -3.12500000E-01  0.00000000E+00  3.12500000E-02
                      -2.50000000E-01  0.00000000E+00  3.12500000E-02
                      -1.87500000E-01  0.00000000E+00  3.12500000E-02
                      -1.25000000E-01  0.00000000E+00  3.12500000E-02
                      -6.25000000E-02  0.00000000E+00  3.12500000E-02
                       0.00000000E+00  6.25000000E-02  3.12500000E-02
                       6.25000000E-02  6.25000000E-02  3.12500000E-02
                       1.25000000E-01  6.25000000E-02  3.12500000E-02
                       1.87500000E-01  6.25000000E-02  3.12500000E-02
                       2.50000000E-01  6.25000000E-02  3.12500000E-02
                       3.12500000E-01  6.25000000E-02  3.12500000E-02
                       3.75000000E-01  6.25000000E-02  3.12500000E-02
                       4.37500000E-01  6.25000000E-02  3.12500000E-02
                       5.00000000E-01  6.25000000E-02  3.12500000E-02
                      -4.37500000E-01  6.25000000E-02  3.12500000E-02
                      -3.75000000E-01  6.25000000E-02  3.12500000E-02
                      -3.12500000E-01  6.25000000E-02  3.12500000E-02
                      -2.50000000E-01  6.25000000E-02  3.12500000E-02
                      -1.87500000E-01  6.25000000E-02  3.12500000E-02
                      -1.25000000E-01  6.25000000E-02  3.12500000E-02
                      -6.25000000E-02  6.25000000E-02  3.12500000E-02
                       0.00000000E+00  1.25000000E-01  3.12500000E-02
                       6.25000000E-02  1.25000000E-01  3.12500000E-02
                       1.25000000E-01  1.25000000E-01  3.12500000E-02
                       1.87500000E-01  1.25000000E-01  3.12500000E-02
                       2.50000000E-01  1.25000000E-01  3.12500000E-02
                       3.12500000E-01  1.25000000E-01  3.12500000E-02
                       3.75000000E-01  1.25000000E-01  3.12500000E-02
                       4.37500000E-01  1.25000000E-01  3.12500000E-02
                       5.00000000E-01  1.25000000E-01  3.12500000E-02
                      -4.37500000E-01  1.25000000E-01  3.12500000E-02
                      -3.75000000E-01  1.25000000E-01  3.12500000E-02
                      -3.12500000E-01  1.25000000E-01  3.12500000E-02
                      -2.50000000E-01  1.25000000E-01  3.12500000E-02
                      -1.87500000E-01  1.25000000E-01  3.12500000E-02
                      -1.25000000E-01  1.25000000E-01  3.12500000E-02
                      -6.25000000E-02  1.25000000E-01  3.12500000E-02
                       0.00000000E+00  1.87500000E-01  3.12500000E-02
                       6.25000000E-02  1.87500000E-01  3.12500000E-02
                       outvar_i_n : Printing only first  50 k-points.
         kptrlatt       16    0    0      0   16    0      0    0   16
          kptrlen      9.74526047E+01
P           mkmem11         5
P           mkmem21        43
P           mkmem22        43
P           mkmem31        43
P           mkmem32        43
            natom           4
            nband11        18
            nband21        18
            nband22        18
            nband31        18
            nband32        18
           ndtset           5
            ngfft          30      30      50
             nkpt11       240
             nkpt21      2048
             nkpt22      2048
             nkpt31      2048
             nkpt32      2048
            nstep         100
             nsym11        12
             nsym21         1
             nsym22         1
             nsym31         1
             nsym32         1
           ntypat           2
              occ11    2.000000  2.000000  2.000000  2.000000  2.000000  2.000000
                       2.000000  2.000000  2.000000  2.000000  2.000000  2.000000
                       2.000000  2.000000  2.000000  2.000000  2.000000  2.000000
              occ21    2.000000  2.000000  2.000000  2.000000  2.000000  2.000000
                       2.000000  2.000000  2.000000  2.000000  2.000000  2.000000
                       2.000000  2.000000  2.000000  2.000000  2.000000  2.000000
              occ22    2.000000  2.000000  2.000000  2.000000  2.000000  2.000000
                       2.000000  2.000000  2.000000  2.000000  2.000000  2.000000
                       2.000000  2.000000  2.000000  2.000000  2.000000  2.000000
              occ31    2.000000  2.000000  2.000000  2.000000  2.000000  2.000000
                       2.000000  2.000000  2.000000  2.000000  2.000000  2.000000
                       2.000000  2.000000  2.000000  2.000000  2.000000  2.000000
              occ32    2.000000  2.000000  2.000000  2.000000  2.000000  2.000000
                       2.000000  2.000000  2.000000  2.000000  2.000000  2.000000
                       2.000000  2.000000  2.000000  2.000000  2.000000  2.000000
            rfdir11         1       1       1
            rfdir21         0       0       0
            rfdir22         0       0       0
            rfdir31         0       0       0
            rfdir32         0       0       0
            rprim      5.0000000000E-01 -8.6602540378E-01  0.0000000000E+00
                       5.0000000000E-01  8.6602540378E-01  0.0000000000E+00
                       0.0000000000E+00  0.0000000000E+00  1.0000000000E+00
           shiftk      0.00000000E+00  0.00000000E+00  5.00000000E-01
          spgroup11       186
          spgroup21         1
          spgroup22         1
          spgroup31         1
          spgroup32         1
           strten11    2.0827949799E-03  2.0827949799E-03  2.0799954152E-03
                       0.0000000000E+00  0.0000000000E+00  0.0000000000E+00
           strten21    2.0827946083E-03  2.0827944400E-03  2.0799975333E-03
                      -8.8813836842E-10 -8.8572459349E-10 -4.0333893101E-12
           strten22    2.0827932264E-03  2.0827930523E-03  2.0799986051E-03
                      -1.7566158474E-09 -1.7561655787E-09 -1.6521622592E-12
           strten31    2.0827962510E-03  2.0827960823E-03  2.0799942380E-03
                       8.8595840311E-10  8.8931868736E-10 -3.4990518581E-12
           strten32    2.0827964947E-03  2.0827963206E-03  2.0799920746E-03
                       1.7566722294E-09  1.7562558158E-09 -6.6054113577E-12
           symafm11      1    1    1    1    1    1    1    1    1    1
                         1    1
           symafm21      1
           symafm22      1
           symafm31      1
           symafm32      1
           symrel11    1  0  0   0  1  0   0  0  1       0  1  0   1  0  0   0  0  1
                       1  1  0  -1  0  0   0  0  1      -1  0  0   1  1  0   0  0  1
                       0  1  0  -1 -1  0   0  0  1      -1 -1  0   0  1  0   0  0  1
                      -1  0  0   0 -1  0   0  0  1       0 -1  0  -1  0  0   0  0  1
                      -1 -1  0   1  0  0   0  0  1       1  0  0  -1 -1  0   0  0  1
                       0 -1  0   1  1  0   0  0  1       1  1  0   0 -1  0   0  0  1
           symrel21    1  0  0   0  1  0   0  0  1
           symrel22    1  0  0   0  1  0   0  0  1
           symrel31    1  0  0   0  1  0   0  0  1
           symrel32    1  0  0   0  1  0   0  0  1
            tnons11    0.0000000  0.0000000  0.0000000     0.0000000  0.0000000  0.5000000
                       0.0000000  0.0000000  0.5000000    -0.0000000  0.0000000  0.0000000
                      -0.0000000  0.0000000  0.0000000    -0.0000000 -0.0000000  0.5000000
                      -0.0000000 -0.0000000  0.5000000    -0.0000000 -0.0000000  0.0000000
                      -0.0000000 -0.0000000  0.0000000     0.0000000 -0.0000000  0.5000000
                       0.0000000 -0.0000000  0.5000000     0.0000000  0.0000000  0.0000000
            tnons21    0.0000000  0.0000000  0.0000000
            tnons22    0.0000000  0.0000000  0.0000000
            tnons31    0.0000000  0.0000000  0.0000000
            tnons32    0.0000000  0.0000000  0.0000000
           toldfe      1.00000000E-12 Hartree
            typat      1  1  2  2
              wtk11      0.00049    0.00293    0.00293    0.00293    0.00293    0.00293
                         0.00293    0.00293    0.00146    0.00293    0.00586    0.00586
                         0.00586    0.00586    0.00586    0.00586    0.00293    0.00586
                         0.00586    0.00586    0.00586    0.00293    0.00293    0.00586
                         0.00586    0.00586    0.00293    0.00586    0.00293    0.00293
                         0.00049    0.00293    0.00293    0.00293    0.00293    0.00293
                         0.00293    0.00293    0.00146    0.00293    0.00586    0.00586
                         0.00586    0.00586    0.00586    0.00586    0.00293    0.00586
                         0.00586    0.00586
              wtk21      0.00049    0.00049    0.00049    0.00049    0.00049    0.00049
                         0.00049    0.00049    0.00049    0.00049    0.00049    0.00049
                         0.00049    0.00049    0.00049    0.00049    0.00049    0.00049
                         0.00049    0.00049    0.00049    0.00049    0.00049    0.00049
                         0.00049    0.00049    0.00049    0.00049    0.00049    0.00049
                         0.00049    0.00049    0.00049    0.00049    0.00049    0.00049
                         0.00049    0.00049    0.00049    0.00049    0.00049    0.00049
                         0.00049    0.00049    0.00049    0.00049    0.00049    0.00049
                         0.00049    0.00049
              wtk22      0.00049    0.00049    0.00049    0.00049    0.00049    0.00049
                         0.00049    0.00049    0.00049    0.00049    0.00049    0.00049
                         0.00049    0.00049    0.00049    0.00049    0.00049    0.00049
                         0.00049    0.00049    0.00049    0.00049    0.00049    0.00049
                         0.00049    0.00049    0.00049    0.00049    0.00049    0.00049
                         0.00049    0.00049    0.00049    0.00049    0.00049    0.00049
                         0.00049    0.00049    0.00049    0.00049    0.00049    0.00049
                         0.00049    0.00049    0.00049    0.00049    0.00049    0.00049
                         0.00049    0.00049
              wtk31      0.00049    0.00049    0.00049    0.00049    0.00049    0.00049
                         0.00049    0.00049    0.00049    0.00049    0.00049    0.00049
                         0.00049    0.00049    0.00049    0.00049    0.00049    0.00049
                         0.00049    0.00049    0.00049    0.00049    0.00049    0.00049
                         0.00049    0.00049    0.00049    0.00049    0.00049    0.00049
                         0.00049    0.00049    0.00049    0.00049    0.00049    0.00049
                         0.00049    0.00049    0.00049    0.00049    0.00049    0.00049
                         0.00049    0.00049    0.00049    0.00049    0.00049    0.00049
                         0.00049    0.00049
              wtk32      0.00049    0.00049    0.00049    0.00049    0.00049    0.00049
                         0.00049    0.00049    0.00049    0.00049    0.00049    0.00049
                         0.00049    0.00049    0.00049    0.00049    0.00049    0.00049
                         0.00049    0.00049    0.00049    0.00049    0.00049    0.00049
                         0.00049    0.00049    0.00049    0.00049    0.00049    0.00049
                         0.00049    0.00049    0.00049    0.00049    0.00049    0.00049
                         0.00049    0.00049    0.00049    0.00049    0.00049    0.00049
                         0.00049    0.00049    0.00049    0.00049    0.00049    0.00049
                         0.00049    0.00049
                       outvars : Printing only first  50 k-points.
           xangst11    1.6115530414E+00  9.3043058229E-01  0.0000000000E+00
                       1.6115530414E+00 -9.3043058229E-01  2.6251648797E+00
                       1.6115530414E+00  9.3043058229E-01  1.9781158965E+00
                       1.6115530414E+00 -9.3043058229E-01  4.6032807762E+00
           xangst21    1.6115530414E+00  9.3043058231E-01  0.0000000000E+00
                       1.6115530414E+00 -9.3043058231E-01  2.6251648797E+00
                       1.6115530414E+00  9.3043058231E-01  1.9781158965E+00
                       1.6115530414E+00 -9.3043058231E-01  4.6032807762E+00
           xangst22    1.6115530414E+00  9.3043058231E-01  0.0000000000E+00
                       1.6115530414E+00 -9.3043058231E-01  2.6251648797E+00
                       1.6115530414E+00  9.3043058231E-01  1.9781158965E+00
                       1.6115530414E+00 -9.3043058231E-01  4.6032807762E+00
           xangst31    1.6115530414E+00  9.3043058231E-01  0.0000000000E+00
                       1.6115530414E+00 -9.3043058231E-01  2.6251648797E+00
                       1.6115530414E+00  9.3043058231E-01  1.9781158965E+00
                       1.6115530414E+00 -9.3043058231E-01  4.6032807762E+00
           xangst32    1.6115530414E+00  9.3043058231E-01  0.0000000000E+00
                       1.6115530414E+00 -9.3043058231E-01  2.6251648797E+00
                       1.6115530414E+00  9.3043058231E-01  1.9781158965E+00
                       1.6115530414E+00 -9.3043058231E-01  4.6032807762E+00
            xcart11    3.0453938969E+00  1.7582589862E+00  0.0000000000E+00
                       3.0453938969E+00 -1.7582589862E+00  4.9608426763E+00
                       3.0453938969E+00  1.7582589862E+00  3.7380973034E+00
                       3.0453938969E+00 -1.7582589862E+00  8.6989399797E+00
            xcart21    3.0453938969E+00  1.7582589862E+00  0.0000000000E+00
                       3.0453938969E+00 -1.7582589862E+00  4.9608426763E+00
                       3.0453938969E+00  1.7582589862E+00  3.7380973034E+00
                       3.0453938969E+00 -1.7582589862E+00  8.6989399797E+00
            xcart22    3.0453938969E+00  1.7582589862E+00  0.0000000000E+00
                       3.0453938969E+00 -1.7582589862E+00  4.9608426763E+00
                       3.0453938969E+00  1.7582589862E+00  3.7380973034E+00
                       3.0453938969E+00 -1.7582589862E+00  8.6989399797E+00
            xcart31    3.0453938969E+00  1.7582589862E+00  0.0000000000E+00
                       3.0453938969E+00 -1.7582589862E+00  4.9608426763E+00
                       3.0453938969E+00  1.7582589862E+00  3.7380973034E+00
                       3.0453938969E+00 -1.7582589862E+00  8.6989399797E+00
            xcart32    3.0453938969E+00  1.7582589862E+00  0.0000000000E+00
                       3.0453938969E+00 -1.7582589862E+00  4.9608426763E+00
                       3.0453938969E+00  1.7582589862E+00  3.7380973034E+00
                       3.0453938969E+00 -1.7582589862E+00  8.6989399797E+00
             xred11    3.3333333333E-01  6.6666666667E-01  0.0000000000E+00
                       6.6666666667E-01  3.3333333333E-01  5.0000000000E-01
                       3.3333333333E-01  6.6666666667E-01  3.7676031547E-01
                       6.6666666667E-01  3.3333333333E-01  8.7676031547E-01
             xred21    3.3333333333E-01  6.6666666667E-01  0.0000000000E+00
                       6.6666666667E-01  3.3333333333E-01  5.0000000000E-01
                       3.3333333333E-01  6.6666666667E-01  3.7676031547E-01
                       6.6666666667E-01  3.3333333333E-01  8.7676031547E-01
             xred22    3.3333333333E-01  6.6666666667E-01  0.0000000000E+00
                       6.6666666667E-01  3.3333333333E-01  5.0000000000E-01
                       3.3333333333E-01  6.6666666667E-01  3.7676031547E-01
                       6.6666666667E-01  3.3333333333E-01  8.7676031547E-01
             xred31    3.3333333333E-01  6.6666666667E-01  0.0000000000E+00
                       6.6666666667E-01  3.3333333333E-01  5.0000000000E-01
                       3.3333333333E-01  6.6666666667E-01  3.7676031547E-01
                       6.6666666667E-01  3.3333333333E-01  8.7676031547E-01
             xred32    3.3333333333E-01  6.6666666667E-01  0.0000000000E+00
                       6.6666666667E-01  3.3333333333E-01  5.0000000000E-01
                       3.3333333333E-01  6.6666666667E-01  3.7676031547E-01
                       6.6666666667E-01  3.3333333333E-01  8.7676031547E-01
            znucl       31.00000    7.00000

- Timing analysis has been suppressed with timopt=0

 Suggested references for the acknowledgment of ABINIT usage.

 Calculation completed.
.Delivered   0 WARNINGs and   8 COMMENTs to log file.