.Version 8.0.8 of ABINIT

 ABINIT is a project of the Universite Catholique de Louvain,
 Corning Inc. and other collaborators, see ~abinit/doc/developers/contributors.txt .
 Please read ~abinit/doc/users/acknowledgments.html for suggested
 acknowledgments of the ABINIT effort.

.Starting date : Wed 13 Sep 2017.
- ( at 19h10 )

- input  file    -> LAO.in
- output file    -> LAO2.out
- root for input  files -> LAO_i
- root for output files -> LAO_o

- inpspheads : Reading pseudopotential header in XML form from ../../paw/La.LDA_PW-JTH.xml

 Symmetries : space group Pm -3 m (#221); Bravais cP (primitive cubic)
     intxc =       0    ionmov =       0      iscf =      17    lmnmax =      32
     lnmax =       8     mgfft =      36  mpssoang =       4    mqgrid =    3001
     natom =       5  nloc_mem =       2    nspden =       1   nspinor =       1
    nsppol =       1      nsym =      48    n1xccc =       1    ntypat =       3
    occopt =       3   xclevel =       1
-    mband =          23        mffmem =           1         mkmem =           2
       mpw =        2301          nfft =       46656          nkpt =          64
Pmy_natom=         1
 PAW method is used; the additional fine FFT grid is defined by:
   mgfftf=        40    nfftf =     64000
  Rough estimation (10% accuracy) of disk space for files :

------------- Echo of variables that govern the present computation ------------
-
- outvars: echo of selected default values
-   iomode0 =  3 , fftalg0 =512 , wfoptalg0 = 10
-
- outvars: echo of global parameters not present in the input file
-  max_nthreads =    1
-
 -outvars: echo values of preprocessed input variables --------
            acell      7.2376510890E+00  7.2376510890E+00  7.2376510890E+00 Bohr
              amu      1.38905500E+02  1.59994000E+01  2.69815390E+01
             ecut      2.50000000E+01 Hartree
-          fftalg         512
           istwfk        1    0    1    0    0    0    0    0    1    0
                         1    0    0    0    0    0    0    0    0    0
                         0    0    0    0    0    0    0    0    0    0
                         0    0    1    0    1    0    0    0    0    0
                         1    0    1    0    0    0    0    0    0    0
                       outvar_i_n : Printing only first  50 k-points.
              ixc       -1012
      ixcpositron          11
              kpt      0.00000000E+00  0.00000000E+00  0.00000000E+00
                       0.00000000E+00  0.00000000E+00  2.50000000E-01
                       0.00000000E+00  0.00000000E+00  5.00000000E-01
                       0.00000000E+00  0.00000000E+00  7.50000000E-01
                       0.00000000E+00  2.50000000E-01  0.00000000E+00
                       0.00000000E+00  2.50000000E-01  2.50000000E-01
                       0.00000000E+00  2.50000000E-01  5.00000000E-01
                       0.00000000E+00  2.50000000E-01  7.50000000E-01
                       0.00000000E+00  5.00000000E-01  0.00000000E+00
                       0.00000000E+00  5.00000000E-01  2.50000000E-01
                       0.00000000E+00  5.00000000E-01  5.00000000E-01
                       0.00000000E+00  5.00000000E-01  7.50000000E-01
                       0.00000000E+00  7.50000000E-01  0.00000000E+00
                       0.00000000E+00  7.50000000E-01  2.50000000E-01
                       0.00000000E+00  7.50000000E-01  5.00000000E-01
                       0.00000000E+00  7.50000000E-01  7.50000000E-01
                       2.50000000E-01  0.00000000E+00  0.00000000E+00
                       2.50000000E-01  0.00000000E+00  2.50000000E-01
                       2.50000000E-01  0.00000000E+00  5.00000000E-01
                       2.50000000E-01  0.00000000E+00  7.50000000E-01
                       2.50000000E-01  2.50000000E-01  0.00000000E+00
                       2.50000000E-01  2.50000000E-01  2.50000000E-01
                       2.50000000E-01  2.50000000E-01  5.00000000E-01
                       2.50000000E-01  2.50000000E-01  7.50000000E-01
                       2.50000000E-01  5.00000000E-01  0.00000000E+00
                       2.50000000E-01  5.00000000E-01  2.50000000E-01
                       2.50000000E-01  5.00000000E-01  5.00000000E-01
                       2.50000000E-01  5.00000000E-01  7.50000000E-01
                       2.50000000E-01  7.50000000E-01  0.00000000E+00
                       2.50000000E-01  7.50000000E-01  2.50000000E-01
                       2.50000000E-01  7.50000000E-01  5.00000000E-01
                       2.50000000E-01  7.50000000E-01  7.50000000E-01
                       5.00000000E-01  0.00000000E+00  0.00000000E+00
                       5.00000000E-01  0.00000000E+00  2.50000000E-01
                       5.00000000E-01  0.00000000E+00  5.00000000E-01
                       5.00000000E-01  0.00000000E+00  7.50000000E-01
                       5.00000000E-01  2.50000000E-01  0.00000000E+00
                       5.00000000E-01  2.50000000E-01  2.50000000E-01
                       5.00000000E-01  2.50000000E-01  5.00000000E-01
                       5.00000000E-01  2.50000000E-01  7.50000000E-01
                       5.00000000E-01  5.00000000E-01  0.00000000E+00
                       5.00000000E-01  5.00000000E-01  2.50000000E-01
                       5.00000000E-01  5.00000000E-01  5.00000000E-01
                       5.00000000E-01  5.00000000E-01  7.50000000E-01
                       5.00000000E-01  7.50000000E-01  0.00000000E+00
                       5.00000000E-01  7.50000000E-01  2.50000000E-01
                       5.00000000E-01  7.50000000E-01  5.00000000E-01
                       5.00000000E-01  7.50000000E-01  7.50000000E-01
                       7.50000000E-01  0.00000000E+00  0.00000000E+00
                       7.50000000E-01  0.00000000E+00  2.50000000E-01
                       outvar_i_n : Printing only first  50 k-points.
           kptopt           0
P           mkmem           2
            natom           5
            nband          23
            ngfft          36      36      36
          ngfftdg          40      40      40
             nkpt          64
            nstep         150
             nsym          48
           ntypat           3
              occ      2.000000  2.000000  2.000000  2.000000  2.000000  2.000000
                       2.000000  2.000000  2.000000  2.000000  2.000000  2.000000
                       2.000000  2.000000  2.000000  2.000000  2.000000  2.000000
                       2.000000  2.000000  0.000000  0.000000  0.000000
                       2.000000  2.000000  2.000000  2.000000  2.000000  2.000000
                       2.000000  2.000000  2.000000  2.000000  2.000000  2.000000
                       2.000000  2.000000  2.000000  2.000000  2.000000  2.000000
                       2.000000  2.000000  0.000000  0.000000  0.000000
                       2.000000  2.000000  2.000000  2.000000  2.000000  2.000000
                       2.000000  2.000000  2.000000  2.000000  2.000000  2.000000
                       2.000000  2.000000  2.000000  2.000000  2.000000  2.000000
                       2.000000  2.000000  0.000000  0.000000  0.000000
                       2.000000  2.000000  2.000000  2.000000  2.000000  2.000000
                       2.000000  2.000000  2.000000  2.000000  2.000000  2.000000
                       2.000000  2.000000  2.000000  2.000000  2.000000  2.000000
                       2.000000  2.000000  0.000000  0.000000  0.000000
                       2.000000  2.000000  2.000000  2.000000  2.000000  2.000000
                       2.000000  2.000000  2.000000  2.000000  2.000000  2.000000
                       2.000000  2.000000  2.000000  2.000000  2.000000  2.000000
                       2.000000  2.000000  0.000000  0.000000  0.000000
                       2.000000  2.000000  2.000000  2.000000  2.000000  2.000000
                       2.000000  2.000000  2.000000  2.000000  2.000000  2.000000
                       2.000000  2.000000  2.000000  2.000000  2.000000  2.000000
                       2.000000  2.000000  0.000000  0.000000  0.000000
                       2.000000  2.000000  2.000000  2.000000  2.000000  2.000000
                       2.000000  2.000000  2.000000  2.000000  2.000000  2.000000
                       2.000000  2.000000  2.000000  2.000000  2.000000  2.000000
                       2.000000  2.000000  0.000000  0.000000  0.000000
                       2.000000  2.000000  2.000000  2.000000  2.000000  2.000000
                       2.000000  2.000000  2.000000  2.000000  2.000000  2.000000
                       2.000000  2.000000  2.000000  2.000000  2.000000  2.000000
                       2.000000  2.000000  0.000000  0.000000  0.000000
                       2.000000  2.000000  2.000000  2.000000  2.000000  2.000000
                       2.000000  2.000000  2.000000  2.000000  2.000000  2.000000
                       2.000000  2.000000  2.000000  2.000000  2.000000  2.000000
                       2.000000  2.000000  0.000000  0.000000  0.000000
                       2.000000  2.000000  2.000000  2.000000  2.000000  2.000000
                       2.000000  2.000000  2.000000  2.000000  2.000000  2.000000
                       2.000000  2.000000  2.000000  2.000000  2.000000  2.000000
                       2.000000  2.000000  0.000000  0.000000  0.000000
                       2.000000  2.000000  2.000000  2.000000  2.000000  2.000000
                       2.000000  2.000000  2.000000  2.000000  2.000000  2.000000
                       2.000000  2.000000  2.000000  2.000000  2.000000  2.000000
                       2.000000  2.000000  0.000000  0.000000  0.000000
                       2.000000  2.000000  2.000000  2.000000  2.000000  2.000000
                       2.000000  2.000000  2.000000  2.000000  2.000000  2.000000
                       2.000000  2.000000  2.000000  2.000000  2.000000  2.000000
                       2.000000  2.000000  0.000000  0.000000  0.000000
                       2.000000  2.000000  2.000000  2.000000  2.000000  2.000000
                       2.000000  2.000000  2.000000  2.000000  2.000000  2.000000
                       2.000000  2.000000  2.000000  2.000000  2.000000  2.000000
                       2.000000  2.000000  0.000000  0.000000  0.000000
                       2.000000  2.000000  2.000000  2.000000  2.000000  2.000000
                       2.000000  2.000000  2.000000  2.000000  2.000000  2.000000
                       2.000000  2.000000  2.000000  2.000000  2.000000  2.000000
                       2.000000  2.000000  0.000000  0.000000  0.000000
                       2.000000  2.000000  2.000000  2.000000  2.000000  2.000000
                       2.000000  2.000000  2.000000  2.000000  2.000000  2.000000
                       2.000000  2.000000  2.000000  2.000000  2.000000  2.000000
                       2.000000  2.000000  0.000000  0.000000  0.000000
                       2.000000  2.000000  2.000000  2.000000  2.000000  2.000000
[...]
[...]
    EP interaction E=  3.04666224092204E-02
    >>>>>>>>> Etotal= -1.62756237263861E+02

 "Double-counting" decomposition of free energy:
    Band energy     = -2.25765847372747E+01
    Ewald energy    = -1.09263003506801E+02
    PspCore energy  =  7.78501948718191E+00
    Dble-C XC-energy= -3.25859619513644E+01
    Spherical terms = -5.45971644838850E+00
    -kT*entropy     = -1.60034885113325E-04
    - EP dble-ct En.= -2.96320994006870E-01
    >>> Electronic E= -1.62396728185538E+02

    Positronic ener.= -3.89975066692766E-01
    EP interaction E=  3.04666224092204E-02
    >>>> Etotal (DC)= -1.62756236629822E+02

  >Total energy in eV           = -4.42882244779617E+03
  >Total DC energy in eV        = -4.42882243054308E+03

== END DATASET(S) ==============================================================

 -outvars: echo values of variables after computation  --------
            acell      7.2376510890E+00  7.2376510890E+00  7.2376510890E+00 Bohr
              amu      1.38905500E+02  1.59994000E+01  2.69815390E+01
             ecut      2.50000000E+01 Hartree
           etotal     -1.6275623776E+02
            fcart      9.9999999999E+99  9.9999999999E+99  9.9999999999E+99
                       9.9999999999E+99  9.9999999999E+99  9.9999999999E+99
                       9.9999999999E+99  9.9999999999E+99  9.9999999999E+99
                       9.9999999999E+99  9.9999999999E+99  9.9999999999E+99
                       9.9999999999E+99  9.9999999999E+99  9.9999999999E+99
-          fftalg         512
           istwfk        1    0    1    0    0    0    0    0    1    0
                         1    0    0    0    0    0    0    0    0    0
                         0    0    0    0    0    0    0    0    0    0
                         0    0    1    0    1    0    0    0    0    0
                         1    0    1    0    0    0    0    0    0    0
                       outvar_i_n : Printing only first  50 k-points.
              ixc       -1012
      ixcpositron          11
              kpt      0.00000000E+00  0.00000000E+00  0.00000000E+00
                       0.00000000E+00  0.00000000E+00  2.50000000E-01
                       0.00000000E+00  0.00000000E+00  5.00000000E-01
                       0.00000000E+00  0.00000000E+00  7.50000000E-01
                       0.00000000E+00  2.50000000E-01  0.00000000E+00
                       0.00000000E+00  2.50000000E-01  2.50000000E-01
                       0.00000000E+00  2.50000000E-01  5.00000000E-01
                       0.00000000E+00  2.50000000E-01  7.50000000E-01
                       0.00000000E+00  5.00000000E-01  0.00000000E+00
                       0.00000000E+00  5.00000000E-01  2.50000000E-01
                       0.00000000E+00  5.00000000E-01  5.00000000E-01
                       0.00000000E+00  5.00000000E-01  7.50000000E-01
                       0.00000000E+00  7.50000000E-01  0.00000000E+00
                       0.00000000E+00  7.50000000E-01  2.50000000E-01
                       0.00000000E+00  7.50000000E-01  5.00000000E-01
                       0.00000000E+00  7.50000000E-01  7.50000000E-01
                       2.50000000E-01  0.00000000E+00  0.00000000E+00
                       2.50000000E-01  0.00000000E+00  2.50000000E-01
                       2.50000000E-01  0.00000000E+00  5.00000000E-01
                       2.50000000E-01  0.00000000E+00  7.50000000E-01
                       2.50000000E-01  2.50000000E-01  0.00000000E+00
                       2.50000000E-01  2.50000000E-01  2.50000000E-01
                       2.50000000E-01  2.50000000E-01  5.00000000E-01
                       2.50000000E-01  2.50000000E-01  7.50000000E-01
                       2.50000000E-01  5.00000000E-01  0.00000000E+00
                       2.50000000E-01  5.00000000E-01  2.50000000E-01
                       2.50000000E-01  5.00000000E-01  5.00000000E-01
                       2.50000000E-01  5.00000000E-01  7.50000000E-01
                       2.50000000E-01  7.50000000E-01  0.00000000E+00
                       2.50000000E-01  7.50000000E-01  2.50000000E-01
                       2.50000000E-01  7.50000000E-01  5.00000000E-01
                       2.50000000E-01  7.50000000E-01  7.50000000E-01
                       5.00000000E-01  0.00000000E+00  0.00000000E+00
                       5.00000000E-01  0.00000000E+00  2.50000000E-01
                       5.00000000E-01  0.00000000E+00  5.00000000E-01
                       5.00000000E-01  0.00000000E+00  7.50000000E-01
                       5.00000000E-01  2.50000000E-01  0.00000000E+00
                       5.00000000E-01  2.50000000E-01  2.50000000E-01
                       5.00000000E-01  2.50000000E-01  5.00000000E-01
                       5.00000000E-01  2.50000000E-01  7.50000000E-01
                       5.00000000E-01  5.00000000E-01  0.00000000E+00
                       5.00000000E-01  5.00000000E-01  2.50000000E-01
                       5.00000000E-01  5.00000000E-01  5.00000000E-01
                       5.00000000E-01  5.00000000E-01  7.50000000E-01
                       5.00000000E-01  7.50000000E-01  0.00000000E+00
                       5.00000000E-01  7.50000000E-01  2.50000000E-01
                       5.00000000E-01  7.50000000E-01  5.00000000E-01
                       5.00000000E-01  7.50000000E-01  7.50000000E-01
                       7.50000000E-01  0.00000000E+00  0.00000000E+00
                       7.50000000E-01  0.00000000E+00  2.50000000E-01
                       outvar_i_n : Printing only first  50 k-points.
           kptopt           0
P           mkmem           2
            natom           5
            nband          23
            ngfft          36      36      36
          ngfftdg          40      40      40
             nkpt          64
            nstep         150
             nsym          48
           ntypat           3
              occ      2.000000  2.000000  2.000000  2.000000  2.000000  2.000000
                       2.000000  2.000000  2.000000  2.000000  2.000000  2.000000
                       2.000000  2.000000  1.999989  1.999989  1.999989  1.998710
                       1.998710  1.998710  0.013781  0.013781  0.000060
                       2.000000  2.000000  2.000000  2.000000  2.000000  2.000000
                       2.000000  2.000000  2.000000  2.000000  2.000000  2.000000
                       2.000000  2.000000  1.999999  1.999996  1.999996  1.999977
                       1.999685  1.999685  0.000832  0.000330  0.000087
                       2.000000  2.000000  2.000000  2.000000  2.000000  2.000000
                       2.000000  2.000000  2.000000  2.000000  2.000000  2.000000
                       2.000000  2.000000  2.000000  2.000000  1.999995  1.999995
                       1.999957  1.999957  0.000202  0.000113  0.000058
                       2.000000  2.000000  2.000000  2.000000  2.000000  2.000000
                       2.000000  2.000000  2.000000  2.000000  2.000000  2.000000
                       2.000000  2.000000  1.999999  1.999996  1.999996  1.999977
                       1.999685  1.999685  0.000832  0.000330  0.000087
                       2.000000  2.000000  2.000000  2.000000  2.000000  2.000000
                       2.000000  2.000000  2.000000  2.000000  2.000000  2.000000
                       2.000000  2.000000  1.999999  1.999996  1.999996  1.999977
                       1.999685  1.999685  0.000832  0.000330  0.000087
                       2.000000  2.000000  2.000000  2.000000  2.000000  2.000000
                       2.000000  2.000000  2.000000  2.000000  2.000000  2.000000
                       2.000000  2.000000  2.000000  1.999999  1.999998  1.999984
                       1.999950  1.999098  0.000293  0.000215  0.000081
                       2.000000  2.000000  2.000000  2.000000  2.000000  2.000000
                       2.000000  2.000000  2.000000  2.000000  2.000000  2.000000
                       2.000000  2.000000  2.000000  1.999999  1.999999  1.999996
                       1.999954  1.999785  0.000188  0.000108  0.000078
                       2.000000  2.000000  2.000000  2.000000  2.000000  2.000000
                       2.000000  2.000000  2.000000  2.000000  2.000000  2.000000
                       2.000000  2.000000  2.000000  1.999999  1.999998  1.999984
                       1.999950  1.999098  0.000293  0.000215  0.000081
                       2.000000  2.000000  2.000000  2.000000  2.000000  2.000000
                       2.000000  2.000000  2.000000  2.000000  2.000000  2.000000
                       2.000000  2.000000  2.000000  2.000000  1.999995  1.999995
                       1.999957  1.999957  0.000202  0.000113  0.000058
                       2.000000  2.000000  2.000000  2.000000  2.000000  2.000000
                       2.000000  2.000000  2.000000  2.000000  2.000000  2.000000
                       2.000000  2.000000  2.000000  1.999999  1.999999  1.999996
                       1.999954  1.999785  0.000188  0.000108  0.000078
                       2.000000  2.000000  2.000000  2.000000  2.000000  2.000000
                       2.000000  2.000000  2.000000  2.000000  2.000000  2.000000
                       2.000000  2.000000  2.000000  2.000000  1.999987  1.999985
                       1.999985  1.998275  0.000182  0.000182  0.000059
                       2.000000  2.000000  2.000000  2.000000  2.000000  2.000000
                       2.000000  2.000000  2.000000  2.000000  2.000000  2.000000
                       2.000000  2.000000  2.000000  1.999999  1.999999  1.999996
                       1.999954  1.999785  0.000188  0.000108  0.000078
                       2.000000  2.000000  2.000000  2.000000  2.000000  2.000000
                       2.000000  2.000000  2.000000  2.000000  2.000000  2.000000
                       2.000000  2.000000  1.999999  1.999996  1.999996  1.999977
                       1.999685  1.999685  0.000832  0.000330  0.000087
                       2.000000  2.000000  2.000000  2.000000  2.000000  2.000000
                       2.000000  2.000000  2.000000  2.000000  2.000000  2.000000
                       2.000000  2.000000  2.000000  1.999999  1.999998  1.999984
                       1.999950  1.999098  0.000293  0.000215  0.000081
                       2.000000  2.000000  2.000000  2.000000  2.000000  2.000000
                       2.000000  2.000000  2.000000  2.000000  2.000000  2.000000
                       2.000000  2.000000  2.000000  1.999999  1.999999  1.999996
                       1.999954  1.999785  0.000188  0.000108  0.000078
                       2.000000  2.000000  2.000000  2.000000  2.000000  2.000000
[...]
                       2.000000  2.000000  2.000000  2.000000  2.000000  2.000000
                       2.000000  2.000000  2.000000  2.000000  1.999986  1.999876
                       1.999876  1.998158  0.000137  0.000137  0.000074
                       2.000000  2.000000  2.000000  2.000000  2.000000  2.000000
                       2.000000  2.000000  2.000000  2.000000  2.000000  2.000000
                       2.000000  2.000000  2.000000  2.000000  1.999996  1.999910
                       1.999879  1.999770  0.000159  0.000117  0.000069
                       2.000000  2.000000  2.000000  2.000000  2.000000  2.000000
                       2.000000  2.000000  2.000000  2.000000  2.000000  2.000000
                       2.000000  2.000000  1.999999  1.999996  1.999996  1.999977
                       1.999685  1.999685  0.000832  0.000330  0.000087
                       2.000000  2.000000  2.000000  2.000000  2.000000  2.000000
                       2.000000  2.000000  2.000000  2.000000  2.000000  2.000000
                       2.000000  2.000000  2.000000  1.999999  1.999998  1.999984
                       1.999950  1.999098  0.000293  0.000215  0.000081
                       prtocc : prtvol=0, do not print more k-points.
           occopt           3
        optforces           0
        optstress           0
        pawecutdg      3.50000000E+01 Hartree
         positron         -10
         posnstep        4
           prteig           0
          spgroup         221
           strten      9.9999999999E+99  9.9999999999E+99  9.9999999999E+99
                       9.9999999999E+99  9.9999999999E+99  9.9999999999E+99
           symrel      1  0  0   0  1  0   0  0  1      -1  0  0   0 -1  0   0  0 -1
                      -1  0  0   0  1  0   0  0 -1       1  0  0   0 -1  0   0  0  1
                      -1  0  0   0 -1  0   0  0  1       1  0  0   0  1  0   0  0 -1
                       1  0  0   0 -1  0   0  0 -1      -1  0  0   0  1  0   0  0  1
                       0  1  0   1  0  0   0  0  1       0 -1  0  -1  0  0   0  0 -1
                       0 -1  0   1  0  0   0  0 -1       0  1  0  -1  0  0   0  0  1
                       0 -1  0  -1  0  0   0  0  1       0  1  0   1  0  0   0  0 -1
                       0  1  0  -1  0  0   0  0 -1       0 -1  0   1  0  0   0  0  1
                       0  0  1   1  0  0   0  1  0       0  0 -1  -1  0  0   0 -1  0
                       0  0 -1   1  0  0   0 -1  0       0  0  1  -1  0  0   0  1  0
                       0  0 -1  -1  0  0   0  1  0       0  0  1   1  0  0   0 -1  0
                       0  0  1  -1  0  0   0 -1  0       0  0 -1   1  0  0   0  1  0
                       1  0  0   0  0  1   0  1  0      -1  0  0   0  0 -1   0 -1  0
                      -1  0  0   0  0  1   0 -1  0       1  0  0   0  0 -1   0  1  0
                      -1  0  0   0  0 -1   0  1  0       1  0  0   0  0  1   0 -1  0
                       1  0  0   0  0 -1   0 -1  0      -1  0  0   0  0  1   0  1  0
                       0  1  0   0  0  1   1  0  0       0 -1  0   0  0 -1  -1  0  0
                       0 -1  0   0  0  1  -1  0  0       0  1  0   0  0 -1   1  0  0
                       0 -1  0   0  0 -1   1  0  0       0  1  0   0  0  1  -1  0  0
                       0  1  0   0  0 -1  -1  0  0       0 -1  0   0  0  1   1  0  0
                       0  0  1   0  1  0   1  0  0       0  0 -1   0 -1  0  -1  0  0
                       0  0 -1   0  1  0  -1  0  0       0  0  1   0 -1  0   1  0  0
                       0  0 -1   0 -1  0   1  0  0       0  0  1   0  1  0  -1  0  0
                       0  0  1   0 -1  0  -1  0  0       0  0 -1   0  1  0   1  0  0
           tolvrs      1.00000000E-10
            typat      1  2  2  2  3
           useylm           1
              wtk        0.01563    0.01563    0.01563    0.01563    0.01563    0.01563
                         0.01563    0.01563    0.01563    0.01563    0.01563    0.01563
                         0.01563    0.01563    0.01563    0.01563    0.01563    0.01563
                         0.01563    0.01563    0.01563    0.01563    0.01563    0.01563
                         0.01563    0.01563    0.01563    0.01563    0.01563    0.01563
                         0.01563    0.01563    0.01563    0.01563    0.01563    0.01563
                         0.01563    0.01563    0.01563    0.01563    0.01563    0.01563
                         0.01563    0.01563    0.01563    0.01563    0.01563    0.01563
                         0.01563    0.01563
                       outvars : Printing only first  50 k-points.
           xangst      0.0000000000E+00  0.0000000000E+00  0.0000000000E+00
                       1.9150000000E+00  1.9150000000E+00  0.0000000000E+00
                       1.9150000000E+00  0.0000000000E+00  1.9150000000E+00
                       0.0000000000E+00  1.9150000000E+00  1.9150000000E+00
                       1.9150000000E+00  1.9150000000E+00  1.9150000000E+00
            xcart      0.0000000000E+00  0.0000000000E+00  0.0000000000E+00
                       3.6188255445E+00  3.6188255445E+00  0.0000000000E+00
                       3.6188255445E+00  0.0000000000E+00  3.6188255445E+00
                       0.0000000000E+00  3.6188255445E+00  3.6188255445E+00
                       3.6188255445E+00  3.6188255445E+00  3.6188255445E+00
             xred      0.0000000000E+00  0.0000000000E+00  0.0000000000E+00
                       5.0000000000E-01  5.0000000000E-01  0.0000000000E+00
                       5.0000000000E-01  0.0000000000E+00  5.0000000000E-01
                       0.0000000000E+00  5.0000000000E-01  5.0000000000E-01
                       5.0000000000E-01  5.0000000000E-01  5.0000000000E-01
            znucl       57.00000    8.00000   13.00000

- Timing analysis has been suppressed with timopt=0

 Suggested references for the acknowledgment of ABINIT usage.

 Calculation completed.
.Delivered   1 WARNINGs and   1 COMMENTs to log file.