.Version 8.10.2 of ABINIT

 ABINIT is a project of the Universite Catholique de Louvain,
 Corning Inc. and other collaborators, see ~abinit/doc/developers/contributors.txt .
 acknowledgments of the ABINIT effort.

.Starting date : Wed 10 Jun 2020.
- ( at 16h49 )

- input  file    -> tudet_1.in
- output file    -> tudet_1.out
- root for input  files -> tudet_1i
- root for output files -> tudet_1o

- inpspheads : Reading pseudopotential header in XML form from Mn.LDA_PW-JTH.xml
- inpspheads : Reading pseudopotential header in XML form from Ba.LDA_PW-JTH.xml
- inpspheads : Reading pseudopotential header in XML form from F.LDA_PW-JTH.xml

 Symmetries : space group Cm c 2_1 (# 36); Bravais oC (1-face-center ortho.)
     intxc =       0    ionmov =       0      iscf =      17    lmnmax =      18
     lnmax =       6     mgfft =      40  mpssoang =       3    mqgrid =    3001
     natom =      12  nloc_mem =       2    nspden =       2   nspinor =       1
    nsppol =       2      nsym =       4    n1xccc =       1    ntypat =       3
    occopt =       4   xclevel =       1
-    mband =          80        mffmem =           1         mkmem =           8
       mpw =        1404          nfft =       48000          nkpt =           8
 PAW method is used; the additional fine FFT grid is defined by:
   mgfftf=        54    nfftf =    131220
  Rough estimation (10% accuracy) of disk space for files :

------------- Echo of variables that govern the present computation ------------
-
- outvars: echo of selected default values
-   iomode0 =  0 , fftalg0 =312 , wfoptalg0 = 10
-
- outvars: echo of global parameters not present in the input file
-  max_nthreads =    0
-
 -outvars: echo values of preprocessed input variables --------
            acell      1.0000000000E+00  1.0000000000E+00  1.0000000000E+00 Bohr
              amu      5.49380500E+01  1.37327000E+02  1.89984032E+01
             ecut      8.00000000E+00 Hartree
-          fftalg         312
           istwfk        0    0    0    0    0    0    0    9
              ixc       -1012
              kpt      1.66666667E-01  1.66666667E-01  1.66666667E-01
                       5.00000000E-01  1.66666667E-01  1.66666667E-01
                      -1.66666667E-01  1.66666667E-01  1.66666667E-01
                       5.00000000E-01  5.00000000E-01  1.66666667E-01
                       1.66666667E-01  1.66666667E-01  5.00000000E-01
                       5.00000000E-01  1.66666667E-01  5.00000000E-01
                      -1.66666667E-01  1.66666667E-01  5.00000000E-01
                       5.00000000E-01  5.00000000E-01  5.00000000E-01
         kptrlatt        3    0    0      0    3    0      0    0    3
          kptrlen      2.39296020E+01
            lpawu           2      -1      -1
P           mkmem           8
            natom          12
            nband          80
            ngfft          40      40      30
          ngfftdg          54      54      45
             nkpt           8
           nspden           2
           nsppol           2
            nstep          15
             nsym           4
           ntypat           3
              occ      1.000000  1.000000  1.000000  1.000000  1.000000  1.000000
                       1.000000  1.000000  1.000000  1.000000  1.000000  1.000000
                       1.000000  1.000000  1.000000  1.000000  1.000000  1.000000
                       1.000000  1.000000  1.000000  1.000000  1.000000  1.000000
                       1.000000  1.000000  1.000000  1.000000  1.000000  1.000000
                       1.000000  1.000000  1.000000  1.000000  1.000000  1.000000
                       1.000000  1.000000  1.000000  1.000000  1.000000  1.000000
                       1.000000  1.000000  1.000000  1.000000  1.000000  1.000000
                       1.000000  1.000000  1.000000  1.000000  1.000000  0.000000
                       0.000000  0.000000  0.000000  0.000000  0.000000  0.000000
                       0.000000  0.000000  0.000000  0.000000  0.000000  0.000000
                       0.000000  0.000000  0.000000  0.000000  0.000000  0.000000
                       0.000000  0.000000  0.000000  0.000000  0.000000  0.000000
                       0.000000  0.000000
                       1.000000  1.000000  1.000000  1.000000  1.000000  1.000000
                       1.000000  1.000000  1.000000  1.000000  1.000000  1.000000
                       1.000000  1.000000  1.000000  1.000000  1.000000  1.000000
                       1.000000  1.000000  1.000000  1.000000  1.000000  1.000000
                       1.000000  1.000000  1.000000  1.000000  1.000000  1.000000
                       1.000000  1.000000  1.000000  1.000000  1.000000  1.000000
                       1.000000  1.000000  1.000000  1.000000  1.000000  1.000000
                       1.000000  1.000000  1.000000  1.000000  1.000000  1.000000
                       1.000000  1.000000  1.000000  1.000000  1.000000  0.000000
                       0.000000  0.000000  0.000000  0.000000  0.000000  0.000000
                       0.000000  0.000000  0.000000  0.000000  0.000000  0.000000
                       0.000000  0.000000  0.000000  0.000000  0.000000  0.000000
                       0.000000  0.000000  0.000000  0.000000  0.000000  0.000000
                       0.000000  0.000000
                       1.000000  1.000000  1.000000  1.000000  1.000000  1.000000
                       1.000000  1.000000  1.000000  1.000000  1.000000  1.000000
                       1.000000  1.000000  1.000000  1.000000  1.000000  1.000000
                       1.000000  1.000000  1.000000  1.000000  1.000000  1.000000
                       1.000000  1.000000  1.000000  1.000000  1.000000  1.000000
                       1.000000  1.000000  1.000000  1.000000  1.000000  1.000000
                       1.000000  1.000000  1.000000  1.000000  1.000000  1.000000
                       1.000000  1.000000  1.000000  1.000000  1.000000  1.000000
                       1.000000  1.000000  1.000000  1.000000  1.000000  0.000000
                       0.000000  0.000000  0.000000  0.000000  0.000000  0.000000
                       0.000000  0.000000  0.000000  0.000000  0.000000  0.000000
                       0.000000  0.000000  0.000000  0.000000  0.000000  0.000000
                       0.000000  0.000000  0.000000  0.000000  0.000000  0.000000
                       0.000000  0.000000
                       1.000000  1.000000  1.000000  1.000000  1.000000  1.000000
                       1.000000  1.000000  1.000000  1.000000  1.000000  1.000000
                       1.000000  1.000000  1.000000  1.000000  1.000000  1.000000
                       1.000000  1.000000  1.000000  1.000000  1.000000  1.000000
                       1.000000  1.000000  1.000000  1.000000  1.000000  1.000000
                       1.000000  1.000000  1.000000  1.000000  1.000000  1.000000
                       1.000000  1.000000  1.000000  1.000000  1.000000  1.000000
                       1.000000  1.000000  1.000000  1.000000  1.000000  1.000000
                       1.000000  1.000000  1.000000  1.000000  1.000000  0.000000
                       0.000000  0.000000  0.000000  0.000000  0.000000  0.000000
                       0.000000  0.000000  0.000000  0.000000  0.000000  0.000000
                       0.000000  0.000000  0.000000  0.000000  0.000000  0.000000
                       0.000000  0.000000  0.000000  0.000000  0.000000  0.000000
                       0.000000  0.000000
                       1.000000  1.000000  1.000000  1.000000  1.000000  1.000000
                       1.000000  1.000000  1.000000  1.000000  1.000000  1.000000
                       1.000000  1.000000  1.000000  1.000000  1.000000  1.000000
                       1.000000  1.000000  1.000000  1.000000  1.000000  1.000000
                       1.000000  1.000000  1.000000  1.000000  1.000000  1.000000
[...]
                       0.000000  0.000000
                       1.000000  1.000000  1.000000  1.000000  1.000000  1.000000
                       1.000000  1.000000  1.000000  1.000000  1.000000  1.000000
                       1.000000  1.000000  1.000000  1.000000  1.000000  1.000000
                       1.000000  1.000000  1.000000  1.000000  1.000000  1.000000
                       1.000000  1.000000  1.000000  1.000000  1.000000  1.000000
                       1.000000  1.000000  1.000000  1.000000  1.000000  1.000000
                       1.000000  1.000000  1.000000  1.000000  1.000000  1.000000
                       1.000000  1.000000  1.000000  1.000000  1.000000  1.000000
                       1.000000  1.000000  1.000000  1.000000  1.000000  0.000000
                       0.000000  0.000000  0.000000  0.000000  0.000000  0.000000
                       0.000000  0.000000  0.000000  0.000000  0.000000  0.000000
                       0.000000  0.000000  0.000000  0.000000  0.000000  0.000000
                       0.000000  0.000000  0.000000  0.000000  0.000000  0.000000
                       0.000000  0.000000
           occopt           4
        pawecutdg      1.60000000E+01 Hartree
          pawovlp     -1.0000000000E+00
           prteig           0
            rprim      3.9882670035E+00 -1.4274046345E+01  0.0000000000E+00
                       3.9882670035E+00  1.4274046345E+01  0.0000000000E+00
                       0.0000000000E+00  0.0000000000E+00  1.1334577345E+01
           shiftk      5.00000000E-01  5.00000000E-01  5.00000000E-01
          spgroup          36
           spinat      0.0000000000E+00  0.0000000000E+00  2.0000000000E+00
                       0.0000000000E+00  0.0000000000E+00  2.0000000000E+00
                       0.0000000000E+00  0.0000000000E+00  0.0000000000E+00
                       0.0000000000E+00  0.0000000000E+00  0.0000000000E+00
                       0.0000000000E+00  0.0000000000E+00  0.0000000000E+00
                       0.0000000000E+00  0.0000000000E+00  0.0000000000E+00
                       0.0000000000E+00  0.0000000000E+00  0.0000000000E+00
                       0.0000000000E+00  0.0000000000E+00  0.0000000000E+00
                       0.0000000000E+00  0.0000000000E+00  0.0000000000E+00
                       0.0000000000E+00  0.0000000000E+00  0.0000000000E+00
                       0.0000000000E+00  0.0000000000E+00  0.0000000000E+00
                       0.0000000000E+00  0.0000000000E+00  0.0000000000E+00
           symrel      1  0  0   0  1  0   0  0  1       0 -1  0  -1  0  0   0  0  1
                      -1  0  0   0 -1  0   0  0  1       0  1  0   1  0  0   0  0  1
            tnons      0.0000000  0.0000000  0.0000000     0.0000000  0.0000000  0.5000000
                       0.0000000  0.0000000  0.5000000     0.0000000  0.0000000  0.0000000
           tolvrs      1.00000000E-11
           tsmear      1.83746627E-03 Hartree
            typat      1  1  2  2  3  3  3  3  3  3  3  3
          usepawu           1
           useylm           1
              wtk        0.14815    0.29630    0.14815    0.07407    0.07407    0.14815
[...]
  -0.97904   -0.96939   -0.92119   -0.90573   -0.74761   -0.73614   -0.70205   -0.67235
  -0.58234   -0.53731   -0.50515   -0.47016   -0.43134   -0.41190   -0.39772   -0.31465
  -0.23404   -0.21558   -0.19295   -0.17103   -0.12108   -0.09872    0.03672    0.09399
   0.12269    0.14908    0.16980    0.17483    0.18037    0.21452    0.22128    0.25196
   0.28864    0.32485    0.33240    0.34601    0.36283    0.36845    0.38593    0.41155
   0.41164    0.43797    0.45287    0.45413    0.47988    0.49557    0.50364    0.51502
   0.53638    0.55636    0.55902    0.57252    0.57365    0.60552    0.60797    0.64328
      occupation numbers for kpt#   1
   1.00000    1.00000    1.00000    1.00000    1.00000    1.00000    1.00000    1.00000
   1.00000    1.00000    1.00000    1.00000    1.00000    1.00000    1.00000    1.00000
   1.00000    1.00000    1.00000    1.00000    1.00000    1.00000    1.00000    1.00000
   1.00000    1.00000    1.00000    1.00000    1.00000    1.00000    1.00000    1.00000
   1.00000    1.00000    1.00000    1.00000    1.00000    1.00000    1.00000    1.00000
   1.00000    1.00000    1.00000    1.00000    1.00000    1.00000    1.00000    1.00000
   1.00000    1.00000    1.00000    1.00000    1.00000    0.00261    0.00000    0.00000
   0.00000    0.00000    0.00000    0.00000    0.00000    0.00000    0.00000    0.00000
   0.00000    0.00000    0.00000    0.00000    0.00000    0.00000    0.00000    0.00000
   0.00000    0.00000    0.00000    0.00000    0.00000    0.00000    0.00000    0.00000
 prteigrs : prtvol=0 or 1, do not print more k-points.

 Components of total free energy (in Hartree) :

    Kinetic energy  =  1.36890020034609E+02
    Hartree energy  =  6.72189910201641E+02
    XC energy       = -4.77188353284762E+01
    Ewald energy    =  1.54034070154618E+03
    PspCore energy  =  1.82799922169226E+01
    Loc. psp. energy= -1.58807882173749E+03
    Spherical terms = -4.48372646499868E+00
    >>>>> Internal E=  7.27419240468391E+02

    -kT*entropy     = -2.03087107329574E-04
    >>>>>>>>> Etotal=  7.27419037381284E+02

 "Double-counting" decomposition of free energy:
    Band energy     = -1.45661344364958E+02
    Ewald energy    =  1.54034070154618E+03
    PspCore energy  =  1.82799922169226E+01
    Dble-C XC-energy= -6.57679473106957E+02
    Spherical terms = -2.78439590870893E+01
    >>>>> Internal E=  7.27435917204102E+02

    -kT*entropy     = -2.03087107329574E-04
    >>>> Etotal (DC)=  7.27435714116994E+02

  >Total energy in eV           =  1.97940786532538E+04
  >Total DC energy in eV        =  1.97945324503108E+04

 Cartesian components of stress tensor (hartree/bohr^3)
  sigma(1 1)= -3.36330368E-01  sigma(3 2)=  0.00000000E+00
  sigma(2 2)=  1.66815284E-02  sigma(3 1)=  0.00000000E+00
  sigma(3 3)= -7.99935865E-01  sigma(2 1)=  0.00000000E+00

-Cartesian components of stress tensor (GPa)         [Pressure=  1.0980E+04 GPa]
- sigma(1 1)= -9.89517940E+03  sigma(3 2)=  0.00000000E+00
- sigma(2 2)=  4.90787429E+02  sigma(3 1)=  0.00000000E+00
- sigma(3 3)= -2.35349217E+04  sigma(2 1)=  0.00000000E+00

== END DATASET(S) ==============================================================

 -outvars: echo values of variables after computation  --------
            acell      1.0000000000E+00  1.0000000000E+00  1.0000000000E+00 Bohr
              amu      5.49380500E+01  1.37327000E+02  1.89984032E+01
             ecut      8.00000000E+00 Hartree
           etotal      7.2743571412E+02
            fcart      2.1238974271E+03 -1.9974743026E-14  3.7620451665E+03
                      -2.1238974271E+03  1.9976039345E-14  3.7620451665E+03
                      -3.2008691840E+01  5.7287077990E-17  8.5495406607E+00
                       3.2008691840E+01 -5.5990759018E-17  8.5495406607E+00
                       4.8721210790E-01 -4.0938068184E-18 -1.7141988319E+00
                      -4.8721210790E-01 -2.3877880392E-18 -1.7141988319E+00
                       5.4702888376E-01 -8.4367850050E-19  1.2482095692E+00
                      -5.4702888376E-01  2.1399974720E-18  1.2482095692E+00
                       3.2832728830E-01 -3.1252977857E-19  3.9113327991E-02
                      -3.2832728830E-01  1.6088487501E-18  3.9113327991E-02
                      -2.0930593963E+03 -2.0959409950E-15 -3.7701678313E+03
                       2.0930593963E+03  2.0972373140E-15 -3.7701678313E+03
-          fftalg         312
           istwfk        0    0    0    0    0    0    0    9
              ixc       -1012
              kpt      1.66666667E-01  1.66666667E-01  1.66666667E-01
                       5.00000000E-01  1.66666667E-01  1.66666667E-01
                      -1.66666667E-01  1.66666667E-01  1.66666667E-01
                       5.00000000E-01  5.00000000E-01  1.66666667E-01
                       1.66666667E-01  1.66666667E-01  5.00000000E-01
                       5.00000000E-01  1.66666667E-01  5.00000000E-01
                      -1.66666667E-01  1.66666667E-01  5.00000000E-01
                       5.00000000E-01  5.00000000E-01  5.00000000E-01
         kptrlatt        3    0    0      0    3    0      0    0    3
          kptrlen      2.39296020E+01
            lpawu           2      -1      -1
P           mkmem           8
            natom          12
            nband          80
            ngfft          40      40      30
          ngfftdg          54      54      45
             nkpt           8
           nspden           2
           nsppol           2
            nstep          15
             nsym           4
           ntypat           3
              occ      1.000000  1.000000  1.000000  1.000000  1.000000  1.000000
                       1.000000  1.000000  1.000000  1.000000  1.000000  1.000000
                       1.000000  1.000000  1.000000  1.000000  1.000000  1.000000
                       1.000000  1.000000  1.000000  1.000000  1.000000  1.000000
                       1.000000  1.000000  1.000000  1.000000  1.000000  1.000000
                       1.000000  1.000000  1.000000  1.000000  1.000000  1.000000
                       1.000000  1.000000  1.000000  1.000000  1.000000  1.000000
                       1.000000  1.000000  1.000000  1.000000  1.000000  1.000000
                       1.000000  1.000000  1.000000  1.000000  1.000000  0.656224
                       0.000010  0.000000  0.000000  0.000000  0.000000  0.000000
                       0.000000  0.000000  0.000000  0.000000  0.000000  0.000000
                       0.000000  0.000000  0.000000  0.000000  0.000000  0.000000
                       0.000000  0.000000  0.000000  0.000000  0.000000  0.000000
                       0.000000  0.000000
                       1.000000  1.000000  1.000000  1.000000  1.000000  1.000000
                       1.000000  1.000000  1.000000  1.000000  1.000000  1.000000
                       1.000000  1.000000  1.000000  1.000000  1.000000  1.000000
                       1.000000  1.000000  1.000000  1.000000  1.000000  1.000000
                       1.000000  1.000000  1.000000  1.000000  1.000000  1.000000
                       1.000000  1.000000  1.000000  1.000000  1.000000  1.000000
                       1.000000  1.000000  1.000000  1.000000  1.000000  1.000000
                       1.000000  1.000000  1.000000  1.000000  1.000000  1.000000
                       1.000000  1.000000  1.000000  1.000000  1.000000  0.134432
                       0.000000  0.000000  0.000000  0.000000  0.000000  0.000000
                       0.000000  0.000000  0.000000  0.000000  0.000000  0.000000
                       0.000000  0.000000  0.000000  0.000000  0.000000  0.000000
                       0.000000  0.000000  0.000000  0.000000  0.000000  0.000000
                       0.000000  0.000000
                       1.000000  1.000000  1.000000  1.000000  1.000000  1.000000
                       1.000000  1.000000  1.000000  1.000000  1.000000  1.000000
                       1.000000  1.000000  1.000000  1.000000  1.000000  1.000000
                       1.000000  1.000000  1.000000  1.000000  1.000000  1.000000
                       1.000000  1.000000  1.000000  1.000000  1.000000  1.000000
                       1.000000  1.000000  1.000000  1.000000  1.000000  1.000000
                       1.000000  1.000000  1.000000  1.000000  1.000000  1.000000
                       1.000000  1.000000  1.000000  1.000000  1.000000  1.000000
                       1.000000  1.000000  1.000000  1.000000  1.000003  0.227205
                       0.000000  0.000000  0.000000  0.000000  0.000000  0.000000
                       0.000000  0.000000  0.000000  0.000000  0.000000  0.000000
                       0.000000  0.000000  0.000000  0.000000  0.000000  0.000000
                       0.000000  0.000000  0.000000  0.000000  0.000000  0.000000
                       0.000000  0.000000
                       1.000000  1.000000  1.000000  1.000000  1.000000  1.000000
                       1.000000  1.000000  1.000000  1.000000  1.000000  1.000000
                       1.000000  1.000000  1.000000  1.000000  1.000000  1.000000
                       1.000000  1.000000  1.000000  1.000000  1.000000  1.000000
                       1.000000  1.000000  1.000000  1.000000  1.000000  1.000000
                       1.000000  1.000000  1.000000  1.000000  1.000000  1.000000
                       1.000000  1.000000  1.000000  1.000000  1.000000  1.000000
                       1.000000  1.000000  1.000000  1.000000  1.000000  1.000000
                       1.000000  1.000000  1.000000  1.000000  1.000011  0.000409
                       0.000000  0.000000  0.000000  0.000000  0.000000  0.000000
                       0.000000  0.000000  0.000000  0.000000  0.000000  0.000000
                       0.000000  0.000000  0.000000  0.000000  0.000000  0.000000
                       0.000000  0.000000  0.000000  0.000000  0.000000  0.000000
                       0.000000  0.000000
                       1.000000  1.000000  1.000000  1.000000  1.000000  1.000000
                       1.000000  1.000000  1.000000  1.000000  1.000000  1.000000
                       1.000000  1.000000  1.000000  1.000000  1.000000  1.000000
                       1.000000  1.000000  1.000000  1.000000  1.000000  1.000000
                       1.000000  1.000000  1.000000  1.000000  1.000000  1.000000
[...]
                       0.000000  0.000000
                       1.000000  1.000000  1.000000  1.000000  1.000000  1.000000
                       1.000000  1.000000  1.000000  1.000000  1.000000  1.000000
                       1.000000  1.000000  1.000000  1.000000  1.000000  1.000000
                       1.000000  1.000000  1.000000  1.000000  1.000000  1.000000
                       1.000000  1.000000  1.000000  1.000000  1.000000  1.000000
                       1.000000  1.000000  1.000000  1.000000  1.000000  1.000000
                       1.000000  1.000000  1.000000  1.000000  1.000000  1.000000
                       1.000000  1.000000  1.000000  1.000000  1.000000  1.000000
                       1.000000  1.000000  1.000000  1.000000  0.000000  0.000000
                       0.000000  0.000000  0.000000  0.000000  0.000000  0.000000
                       0.000000  0.000000  0.000000  0.000000  0.000000  0.000000
                       0.000000  0.000000  0.000000  0.000000  0.000000  0.000000
                       0.000000  0.000000  0.000000  0.000000  0.000000  0.000000
                       0.000000  0.000000
           occopt           4
        pawecutdg      1.60000000E+01 Hartree
          pawovlp     -1.0000000000E+00
           prteig           0
            rprim      3.9882670035E+00 -1.4274046345E+01  0.0000000000E+00
                       3.9882670035E+00  1.4274046345E+01  0.0000000000E+00
                       0.0000000000E+00  0.0000000000E+00  1.1334577345E+01
           shiftk      5.00000000E-01  5.00000000E-01  5.00000000E-01
          spgroup          36
           spinat      0.0000000000E+00  0.0000000000E+00  2.0000000000E+00
                       0.0000000000E+00  0.0000000000E+00  2.0000000000E+00
                       0.0000000000E+00  0.0000000000E+00  0.0000000000E+00
                       0.0000000000E+00  0.0000000000E+00  0.0000000000E+00
                       0.0000000000E+00  0.0000000000E+00  0.0000000000E+00
                       0.0000000000E+00  0.0000000000E+00  0.0000000000E+00
                       0.0000000000E+00  0.0000000000E+00  0.0000000000E+00
                       0.0000000000E+00  0.0000000000E+00  0.0000000000E+00
                       0.0000000000E+00  0.0000000000E+00  0.0000000000E+00
                       0.0000000000E+00  0.0000000000E+00  0.0000000000E+00
                       0.0000000000E+00  0.0000000000E+00  0.0000000000E+00
                       0.0000000000E+00  0.0000000000E+00  0.0000000000E+00
           strten     -3.3633036835E-01  1.6681528442E-02 -7.9993586505E-01
                       0.0000000000E+00  0.0000000000E+00  0.0000000000E+00
           symrel      1  0  0   0  1  0   0  0  1       0 -1  0  -1  0  0   0  0  1
                      -1  0  0   0 -1  0   0  0  1       0  1  0   1  0  0   0  0  1
            tnons      0.0000000  0.0000000  0.0000000     0.0000000  0.0000000  0.5000000
                       0.0000000  0.0000000  0.5000000     0.0000000  0.0000000  0.0000000
           tolvrs      1.00000000E-11
           tsmear      1.83746627E-03 Hartree
            typat      1  1  2  2  3  3  3  3  3  3  3  3
          usepawu           1
           useylm           1
              wtk        0.14815    0.29630    0.14815    0.07407    0.07407    0.14815
                         0.07407    0.03704
           xangst      2.4770094300E+00 -1.3571254261E-16  1.9439518000E+00
                       1.7439905700E+00 -2.3289064217E-16  4.9429518000E+00
                       1.4872693500E+00 -7.2925370442E-17  2.1682770000E+00
                       2.7337306500E+00  7.2925370442E-17  5.1672770000E+00
                       1.2029850000E-01  4.0653274622E-17  0.0000000000E+00
                       4.1007015000E+00 -8.8011655580E-16  2.9990000000E+00
                       7.0659540000E-01 -4.8089492895E-17  3.5664108000E+00
                       3.5144046000E+00  1.2230989351E-15  5.6741080000E-01
                       8.3702430000E-01  4.7183275360E-17  7.4255240000E-01
                       3.3839757000E+00 -1.1207921254E-15  3.7415524000E+00
                       2.4367833000E+00 -8.2112970770E-17  1.8719758000E+00
                       1.7842167000E+00  6.0281704368E-16  4.8709758000E+00
            xcart      4.6808694513E+00 -2.5645953834E-16  3.6735365175E+00
                       3.2956645556E+00 -4.4009953261E-16  9.3408251901E+00
                       2.8105317573E+00 -1.3780897828E-16  4.0974497102E+00
                       5.1660022496E+00  1.3780897828E-16  9.7647383828E+00
                       2.2733121920E-01  7.6823555441E-17  0.0000000000E+00
                       7.7492027877E+00 -1.6631792555E-15  5.6672886725E+00
                       1.3352717928E+00 -9.0875971441E-17  6.7395396894E+00
                       6.6412622142E+00  2.3113220207E-15  1.0722510168E+00
                       1.5817466936E+00  8.9163468482E-17  1.4032206753E+00
                       6.3947873133E+00 -2.1179901690E-15  7.0705093478E+00
                       4.6048530822E+00 -1.5517102671E-16  3.5375215894E+00
                       3.3716809247E+00  1.1391591208E-15  9.2048102619E+00
             xred      5.8683000000E-01  5.8683000000E-01  3.2410000000E-01
                       4.1317000000E-01  4.1317000000E-01  8.2410000000E-01
                       3.5235000000E-01  3.5235000000E-01  3.6150000000E-01
                       6.4765000000E-01  6.4765000000E-01  8.6150000000E-01
                       2.8500000000E-02  2.8500000000E-02  0.0000000000E+00
                       9.7150000000E-01  9.7150000000E-01  5.0000000000E-01
                       1.6740000000E-01  1.6740000000E-01  5.9460000000E-01
                       8.3260000000E-01  8.3260000000E-01  9.4600000000E-02
                       1.9830000000E-01  1.9830000000E-01  1.2380000000E-01
                       8.0170000000E-01  8.0170000000E-01  6.2380000000E-01
                       5.7730000000E-01  5.7730000000E-01  3.1210000000E-01
                       4.2270000000E-01  4.2270000000E-01  8.1210000000E-01
            znucl       25.00000   56.00000    9.00000

- Timing analysis has been suppressed with timopt=0

 Suggested references for the acknowledgment of ABINIT usage.

 Calculation completed.
.Delivered  17 WARNINGs and   1 COMMENTs to log file.