.Version 7.6.4 of ABINIT

 ABINIT is a project of the Universite Catholique de Louvain,
 Corning Inc. and other collaborators, see ~abinit/doc/developers/contributors.txt .
 Please read ~abinit/doc/users/acknowledgments.html for suggested
 acknowledgments of the ABINIT effort.

.Starting date : Tue  8 Jul 2014.
- ( at 15h15 )

- input  file    -> CoO.in
- output file    -> CoO.out
- root for input  files -> CoOin
- root for output files -> CoOout

 DATASET    1 : space group I4 (# 79); Bravais tI (body-center tetrag.)
   intxc =         0  ionmov =         0    iscf =        17 xclevel =         2
  lmnmax =        18   lnmax =         6   mband =        18  mffmem =         1
P  mgfft =        30   mkmem =        32 mpssoang=         3     mpw =      1017
  mqgrid =      3001   natom =         2    nfft =     27000    nkpt =       512
  nloalg =         4  nspden =         4 nspinor =         2  nsppol =         1
    nsym =         4  n1xccc =         1  ntypat =         2  occopt =         3
Pmy_natom=         1
 PAW method is used; the additional fine FFT grid is defined by:
   mgfftf=        48    nfftf =    110592
  Rough estimation (10% accuracy) of disk space for files :

------------- Echo of variables that govern the present computation ------------
-
- outvars: echo of selected default values
-   accesswff0 =  0 , fftalg0 =112 , wfoptalg0 = 10
-
- outvars: echo of global parameters not present in the input file
-  max_nthreads =    0
-
 -outvars: echo values of preprocessed input variables --------
            acell      8.0000000000E+00  8.0000000000E+00  8.0000000000E+00 Bohr
              amu      5.89332000E+01  1.59994000E+01
      chksymbreak           0
         dmatpawu        1.00000    0.00000    0.00000    0.00000    0.00000
                         0.00000    1.00000    0.00000    0.00000    0.00000
                         0.00000    0.00000    1.00000    0.00000    0.00000
                         0.00000    0.00000    0.00000    1.00000    0.00000
                         0.00000    0.00000    0.00000    0.00000    1.00000
                         1.00000    0.00000    0.00000    0.00000    0.00000
                         0.00000    1.00000    0.00000    0.00000    0.00000
                         0.00000    0.00000    0.00000    0.00000    0.00000
                         0.00000    0.00000    0.00000    0.00000    0.00000
                         0.00000    0.00000    0.00000    0.00000    0.00000
             ecut      3.00000000E+01 Hartree
           iatsph1       1    2
              ixc          11
           jdtset        1
              kpt      6.25000000E-02  6.25000000E-02  6.25000000E-02
                       1.87500000E-01  6.25000000E-02  6.25000000E-02
                       3.12500000E-01  6.25000000E-02  6.25000000E-02
                       4.37500000E-01  6.25000000E-02  6.25000000E-02
                      -4.37500000E-01  6.25000000E-02  6.25000000E-02
                      -3.12500000E-01  6.25000000E-02  6.25000000E-02
                      -1.87500000E-01  6.25000000E-02  6.25000000E-02
                      -6.25000000E-02  6.25000000E-02  6.25000000E-02
                       6.25000000E-02  1.87500000E-01  6.25000000E-02
                       1.87500000E-01  1.87500000E-01  6.25000000E-02
                       3.12500000E-01  1.87500000E-01  6.25000000E-02
                       4.37500000E-01  1.87500000E-01  6.25000000E-02
                      -4.37500000E-01  1.87500000E-01  6.25000000E-02
                      -3.12500000E-01  1.87500000E-01  6.25000000E-02
                      -1.87500000E-01  1.87500000E-01  6.25000000E-02
                      -6.25000000E-02  1.87500000E-01  6.25000000E-02
                       6.25000000E-02  3.12500000E-01  6.25000000E-02
                       1.87500000E-01  3.12500000E-01  6.25000000E-02
                       3.12500000E-01  3.12500000E-01  6.25000000E-02
                       4.37500000E-01  3.12500000E-01  6.25000000E-02
                      -4.37500000E-01  3.12500000E-01  6.25000000E-02
                      -3.12500000E-01  3.12500000E-01  6.25000000E-02
                      -1.87500000E-01  3.12500000E-01  6.25000000E-02
                      -6.25000000E-02  3.12500000E-01  6.25000000E-02
                       6.25000000E-02  4.37500000E-01  6.25000000E-02
                       1.87500000E-01  4.37500000E-01  6.25000000E-02
                       3.12500000E-01  4.37500000E-01  6.25000000E-02
                       4.37500000E-01  4.37500000E-01  6.25000000E-02
                      -4.37500000E-01  4.37500000E-01  6.25000000E-02
                      -3.12500000E-01  4.37500000E-01  6.25000000E-02
                      -1.87500000E-01  4.37500000E-01  6.25000000E-02
                      -6.25000000E-02  4.37500000E-01  6.25000000E-02
                       6.25000000E-02 -4.37500000E-01  6.25000000E-02
                       1.87500000E-01 -4.37500000E-01  6.25000000E-02
                       3.12500000E-01 -4.37500000E-01  6.25000000E-02
                       4.37500000E-01 -4.37500000E-01  6.25000000E-02
                      -4.37500000E-01 -4.37500000E-01  6.25000000E-02
                      -3.12500000E-01 -4.37500000E-01  6.25000000E-02
                      -1.87500000E-01 -4.37500000E-01  6.25000000E-02
                      -6.25000000E-02 -4.37500000E-01  6.25000000E-02
                       6.25000000E-02 -3.12500000E-01  6.25000000E-02
                       1.87500000E-01 -3.12500000E-01  6.25000000E-02
                       3.12500000E-01 -3.12500000E-01  6.25000000E-02
                       4.37500000E-01 -3.12500000E-01  6.25000000E-02
                      -4.37500000E-01 -3.12500000E-01  6.25000000E-02
                      -3.12500000E-01 -3.12500000E-01  6.25000000E-02
                      -1.87500000E-01 -3.12500000E-01  6.25000000E-02
                      -6.25000000E-02 -3.12500000E-01  6.25000000E-02
                       6.25000000E-02 -1.87500000E-01  6.25000000E-02
                       1.87500000E-01 -1.87500000E-01  6.25000000E-02
                       outvar_i_n : Printing only first  50 k-points.
           kptopt           4
         kptrlatt        8    0    0      0    8    0      0    0    8
          kptrlen      4.52548340E+01
            lpawu           2      -1
P           mkmem          32
            natom           2
           natsph        2
            nband          18
           ndtset           1
            ngfft          30      30      30
          ngfftdg          48      48      48
             nkpt         512
-           npkpt          16
           nspden           4
          nspinor           2
            nstep        1000
             nsym           4
           ntypat           2
              occ      1.000000  1.000000  1.000000  1.000000  1.000000  1.000000
                       1.000000  1.000000  1.000000  1.000000  1.000000  1.000000
                       1.000000  1.000000  1.000000  0.000000  0.000000  0.000000
                       1.000000  1.000000  1.000000  1.000000  1.000000  1.000000
                       1.000000  1.000000  1.000000  1.000000  1.000000  1.000000
                       1.000000  1.000000  1.000000  0.000000  0.000000  0.000000
                       1.000000  1.000000  1.000000  1.000000  1.000000  1.000000
                       1.000000  1.000000  1.000000  1.000000  1.000000  1.000000
                       1.000000  1.000000  1.000000  0.000000  0.000000  0.000000
                       1.000000  1.000000  1.000000  1.000000  1.000000  1.000000
                       1.000000  1.000000  1.000000  1.000000  1.000000  1.000000
                       1.000000  1.000000  1.000000  0.000000  0.000000  0.000000
                       1.000000  1.000000  1.000000  1.000000  1.000000  1.000000
                       1.000000  1.000000  1.000000  1.000000  1.000000  1.000000
                       1.000000  1.000000  1.000000  0.000000  0.000000  0.000000
                       1.000000  1.000000  1.000000  1.000000  1.000000  1.000000
                       1.000000  1.000000  1.000000  1.000000  1.000000  1.000000
                       1.000000  1.000000  1.000000  0.000000  0.000000  0.000000
                       1.000000  1.000000  1.000000  1.000000  1.000000  1.000000
                       1.000000  1.000000  1.000000  1.000000  1.000000  1.000000
                       1.000000  1.000000  1.000000  0.000000  0.000000  0.000000
                       1.000000  1.000000  1.000000  1.000000  1.000000  1.000000
                       1.000000  1.000000  1.000000  1.000000  1.000000  1.000000
                       1.000000  1.000000  1.000000  0.000000  0.000000  0.000000
                       1.000000  1.000000  1.000000  1.000000  1.000000  1.000000
                       1.000000  1.000000  1.000000  1.000000  1.000000  1.000000
                       1.000000  1.000000  1.000000  0.000000  0.000000  0.000000
                       1.000000  1.000000  1.000000  1.000000  1.000000  1.000000
                       1.000000  1.000000  1.000000  1.000000  1.000000  1.000000
                       1.000000  1.000000  1.000000  0.000000  0.000000  0.000000
                       1.000000  1.000000  1.000000  1.000000  1.000000  1.000000
                       1.000000  1.000000  1.000000  1.000000  1.000000  1.000000
                       1.000000  1.000000  1.000000  0.000000  0.000000  0.000000
                       1.000000  1.000000  1.000000  1.000000  1.000000  1.000000
                       1.000000  1.000000  1.000000  1.000000  1.000000  1.000000
                       1.000000  1.000000  1.000000  0.000000  0.000000  0.000000
                       1.000000  1.000000  1.000000  1.000000  1.000000  1.000000
                       1.000000  1.000000  1.000000  1.000000  1.000000  1.000000
                       1.000000  1.000000  1.000000  0.000000  0.000000  0.000000
                       1.000000  1.000000  1.000000  1.000000  1.000000  1.000000
                       1.000000  1.000000  1.000000  1.000000  1.000000  1.000000
                       1.000000  1.000000  1.000000  0.000000  0.000000  0.000000
                       1.000000  1.000000  1.000000  1.000000  1.000000  1.000000
                       1.000000  1.000000  1.000000  1.000000  1.000000  1.000000
                       1.000000  1.000000  1.000000  0.000000  0.000000  0.000000
                       1.000000  1.000000  1.000000  1.000000  1.000000  1.000000
                       1.000000  1.000000  1.000000  1.000000  1.000000  1.000000
                       1.000000  1.000000  1.000000  0.000000  0.000000  0.000000
                       1.000000  1.000000  1.000000  1.000000  1.000000  1.000000
                       1.000000  1.000000  1.000000  1.000000  1.000000  1.000000
                       1.000000  1.000000  1.000000  0.000000  0.000000  0.000000
                       1.000000  1.000000  1.000000  1.000000  1.000000  1.000000
                       1.000000  1.000000  1.000000  1.000000  1.000000  1.000000
[...]
            acell      8.0000000000E+00  8.0000000000E+00  8.0000000000E+00 Bohr
              amu      5.89332000E+01  1.59994000E+01
      chksymbreak           0
         dmatpawu        1.00000    0.00000    0.00000    0.00000    0.00000
                         0.00000    1.00000    0.00000    0.00000    0.00000
                         0.00000    0.00000    1.00000    0.00000    0.00000
                         0.00000    0.00000    0.00000    1.00000    0.00000
                         0.00000    0.00000    0.00000    0.00000    1.00000
                         1.00000    0.00000    0.00000    0.00000    0.00000
                         0.00000    1.00000    0.00000    0.00000    0.00000
                         0.00000    0.00000    0.00000    0.00000    0.00000
                         0.00000    0.00000    0.00000    0.00000    0.00000
                         0.00000    0.00000    0.00000    0.00000    0.00000
             ecut      3.00000000E+01 Hartree
           etotal1    -4.6162745854E+01
            fcart1     9.9999999999E+99  9.9999999999E+99  9.9999999999E+99
                       9.9999999999E+99  9.9999999999E+99  9.9999999999E+99
           iatsph1       1    2
              ixc          11
           jdtset        1
              kpt      6.25000000E-02  6.25000000E-02  6.25000000E-02
                       1.87500000E-01  6.25000000E-02  6.25000000E-02
                       3.12500000E-01  6.25000000E-02  6.25000000E-02
                       4.37500000E-01  6.25000000E-02  6.25000000E-02
                      -4.37500000E-01  6.25000000E-02  6.25000000E-02
                      -3.12500000E-01  6.25000000E-02  6.25000000E-02
                      -1.87500000E-01  6.25000000E-02  6.25000000E-02
                      -6.25000000E-02  6.25000000E-02  6.25000000E-02
                       6.25000000E-02  1.87500000E-01  6.25000000E-02
                       1.87500000E-01  1.87500000E-01  6.25000000E-02
                       3.12500000E-01  1.87500000E-01  6.25000000E-02
                       4.37500000E-01  1.87500000E-01  6.25000000E-02
                      -4.37500000E-01  1.87500000E-01  6.25000000E-02
                      -3.12500000E-01  1.87500000E-01  6.25000000E-02
                      -1.87500000E-01  1.87500000E-01  6.25000000E-02
                      -6.25000000E-02  1.87500000E-01  6.25000000E-02
                       6.25000000E-02  3.12500000E-01  6.25000000E-02
                       1.87500000E-01  3.12500000E-01  6.25000000E-02
                       3.12500000E-01  3.12500000E-01  6.25000000E-02
                       4.37500000E-01  3.12500000E-01  6.25000000E-02
                      -4.37500000E-01  3.12500000E-01  6.25000000E-02
                      -3.12500000E-01  3.12500000E-01  6.25000000E-02
                      -1.87500000E-01  3.12500000E-01  6.25000000E-02
                      -6.25000000E-02  3.12500000E-01  6.25000000E-02
                       6.25000000E-02  4.37500000E-01  6.25000000E-02
                       1.87500000E-01  4.37500000E-01  6.25000000E-02
                       3.12500000E-01  4.37500000E-01  6.25000000E-02
                       4.37500000E-01  4.37500000E-01  6.25000000E-02
                      -4.37500000E-01  4.37500000E-01  6.25000000E-02
                      -3.12500000E-01  4.37500000E-01  6.25000000E-02
                      -1.87500000E-01  4.37500000E-01  6.25000000E-02
                      -6.25000000E-02  4.37500000E-01  6.25000000E-02
                       6.25000000E-02 -4.37500000E-01  6.25000000E-02
                       1.87500000E-01 -4.37500000E-01  6.25000000E-02
                       3.12500000E-01 -4.37500000E-01  6.25000000E-02
                       4.37500000E-01 -4.37500000E-01  6.25000000E-02
                      -4.37500000E-01 -4.37500000E-01  6.25000000E-02
                      -3.12500000E-01 -4.37500000E-01  6.25000000E-02
                      -1.87500000E-01 -4.37500000E-01  6.25000000E-02
                      -6.25000000E-02 -4.37500000E-01  6.25000000E-02
                       6.25000000E-02 -3.12500000E-01  6.25000000E-02
                       1.87500000E-01 -3.12500000E-01  6.25000000E-02
                       3.12500000E-01 -3.12500000E-01  6.25000000E-02
                       4.37500000E-01 -3.12500000E-01  6.25000000E-02
                      -4.37500000E-01 -3.12500000E-01  6.25000000E-02
                      -3.12500000E-01 -3.12500000E-01  6.25000000E-02
                      -1.87500000E-01 -3.12500000E-01  6.25000000E-02
                      -6.25000000E-02 -3.12500000E-01  6.25000000E-02
                       6.25000000E-02 -1.87500000E-01  6.25000000E-02
                       1.87500000E-01 -1.87500000E-01  6.25000000E-02
                       outvar_i_n : Printing only first  50 k-points.
           kptopt           4
         kptrlatt        8    0    0      0    8    0      0    0    8
          kptrlen      4.52548340E+01
            lpawu           2      -1
P           mkmem          32
            natom           2
           natsph        2
            nband          18
           ndtset           1
            ngfft          30      30      30
          ngfftdg          48      48      48
             nkpt         512
-           npkpt          16
           nspden           4
          nspinor           2
            nstep        1000
             nsym           4
           ntypat           2
              occ      1.000000  1.000000  0.997092  0.996659  0.995347  0.995130
                       0.993931  0.956758  0.948770  0.942772  0.938406  0.932565
                       0.931403  0.919850  0.852233  0.839209  0.188069  0.147312
                       1.000000  1.000000  0.997920  0.997777  0.996350  0.994734
                       0.993863  0.985519  0.966549  0.963712  0.950646  0.927730
                       0.891816  0.880000  0.838288  0.793441  0.071985  0.061195
                       1.000000  1.000000  0.998925  0.998790  0.998339  0.996903
                       0.993610  0.992568  0.977013  0.975494  0.969046  0.871722
                       0.852849  0.784792  0.783138  0.736858  0.018078  0.016955
                       1.000000  1.000000  0.999530  0.999144  0.999095  0.999032
                       0.992106  0.990910  0.982890  0.978387  0.973638  0.819942
                       0.789903  0.716991  0.707021  0.670912  0.008568  0.007215
                       1.000000  1.000000  0.999643  0.999302  0.999254  0.999176
                       0.991344  0.990435  0.983970  0.980816  0.972656  0.823673
                       0.735675  0.712973  0.678511  0.636119  0.007209  0.006369
                       1.000000  1.000000  0.999418  0.999061  0.998903  0.998664
                       0.992135  0.991635  0.980707  0.977839  0.975578  0.859489
                       0.793391  0.758994  0.696514  0.676225  0.009429  0.008613
                       1.000000  1.000000  0.998879  0.998113  0.997811  0.994717
                       0.993763  0.993253  0.975673  0.971643  0.968611  0.897619
                       0.881496  0.843343  0.758131  0.738267  0.026535  0.025754
                       1.000000  1.000000  0.997978  0.996685  0.995569  0.995047
                       0.994091  0.973636  0.957516  0.955031  0.952459  0.930430
                       0.927474  0.918326  0.811879  0.798672  0.110053  0.093595
                       1.000000  1.000000  0.998123  0.997631  0.996141  0.994755
                       0.993819  0.984513  0.967384  0.967258  0.951663  0.925850
                       0.904441  0.882898  0.812025  0.788527  0.072037  0.060959
                       1.000000  1.000000  0.998692  0.996958  0.996125  0.995031
                       0.993991  0.987121  0.969956  0.964390  0.959984  0.930825
                       0.911577  0.879131  0.848402  0.745184  0.054188  0.043068
                       1.000000  1.000000  0.999181  0.997938  0.997188  0.995381
                       0.994385  0.993149  0.979454  0.972138  0.969096  0.932981
                       0.860259  0.853859  0.830668  0.691502  0.026597  0.013608
                       1.000000  1.000000  0.999395  0.998865  0.998565  0.998363
                       0.993337  0.991158  0.986321  0.978437  0.973793  0.894945
                       0.820269  0.800319  0.794660  0.659629  0.012461  0.006473
                       1.000000  1.000000  0.999501  0.999094  0.999068  0.999017
                       0.992103  0.990330  0.989206  0.980925  0.973929  0.863420
                       0.826522  0.779257  0.719045  0.645475  0.008188  0.004323
                       1.000000  1.000000  0.999482  0.999153  0.998707  0.998632
                       0.992043  0.991285  0.989751  0.978621  0.974160  0.896557
                       0.859769  0.745215  0.677216  0.652382  0.011034  0.004088
                       1.000000  1.000000  0.999275  0.998811  0.997431  0.996811
                       0.993300  0.992805  0.987336  0.972060  0.970945  0.931727
                       0.895343  0.773591  0.703548  0.677398  0.020849  0.008174
                       1.000000  1.000000  0.998833  0.997856  0.996565  0.994300
                       0.993741  0.991589  0.975855  0.970236  0.961757  0.926352
                       0.914912  0.856079  0.756060  0.738067  0.038552  0.032572
                       1.000000  1.000000  0.998951  0.998855  0.998204  0.996844
                       0.993415  0.992546  0.977519  0.976246  0.970265  0.873321
                       0.868065  0.790755  0.757058  0.719431  0.017653  0.016968
                       1.000000  1.000000  0.999181  0.998084  0.997038  0.995183
                       0.994209  0.993047  0.981745  0.970545  0.970234  0.929700
                       0.876824  0.858561  0.804625  0.692345  0.025467  0.014204
                       1.000000  1.000000  0.999305  0.996914  0.996746  0.996089
                       0.994450  0.993107  0.979380  0.976401  0.966657  0.943905
                       0.933178  0.908928  0.806204  0.655059  0.022321  0.016693
                       1.000000  1.000000  0.999235  0.997812  0.997569  0.997515
                       0.993521  0.991496  0.986149  0.979391  0.974348  0.955640
                       0.919015  0.886590  0.814387  0.644782  0.015291  0.010096
                       1.000000  1.000000  0.999002  0.998716  0.998534  0.998035
[...]
                       1.000000  1.000000  0.999223  0.997206  0.997200  0.996562
                       0.993568  0.991930  0.980960  0.978062  0.974009  0.956328
                       0.952140  0.920897  0.809052  0.644291  0.015914  0.014598
                       1.000000  1.000000  0.999321  0.997901  0.997422  0.996904
                       0.994110  0.992443  0.983539  0.977094  0.970519  0.942809
                       0.882100  0.874825  0.814085  0.656309  0.019388  0.011842
                       1.000000  1.000000  0.999285  0.998866  0.998496  0.997946
                       0.993355  0.991960  0.982157  0.974320  0.974273  0.878484
                       0.831596  0.785007  0.763224  0.694309  0.014910  0.008535
                       1.000000  1.000000  0.998788  0.998247  0.997836  0.994790
                       0.994124  0.993005  0.975030  0.971512  0.967517  0.883612
                       0.867939  0.839651  0.807790  0.746404  0.026517  0.025300
                       1.000000  1.000000  0.999226  0.998892  0.997504  0.996800
                       0.993511  0.992456  0.987085  0.971710  0.971073  0.930886
                       0.867810  0.773730  0.761977  0.680715  0.020459  0.008181
                       prtocc : prtvol=0, do not print more k-points.
           occopt           3
        optforces           0
        pawcpxocc           2
        pawecutdg      8.00000000E+01 Hartree
           prtdos           3
            rprim      5.0000000000E-01  5.0000000000E-01  0.0000000000E+00
                       0.0000000000E+00  5.0000000000E-01  5.0000000000E-01
                       5.0000000000E-01  0.0000000000E+00  5.0000000000E-01
           shiftk      5.00000000E-01  5.00000000E-01  5.00000000E-01
          spgroup          79
           spinat      0.0000000000E+00  0.0000000000E+00  3.0000000000E+00
                       0.0000000000E+00  0.0000000000E+00  0.0000000000E+00
           strten1    -4.6669890784E-04 -4.6669890784E-04 -4.1037443690E-04
                       0.0000000000E+00  0.0000000000E+00  0.0000000000E+00
           symrel      1  0  0   0  1  0   0  0  1      -1  0  0  -1  0  1  -1  1  0
                       0  1 -1  -1  1  0   0  1  0       0 -1  1   0  0  1  -1  0  1
           tolvrs      1.00000000E-06
            typat      1  2
            upawu      2.93994603E-01  0.00000000E+00
        usedmatpu          10
          usepawu           1
        usexcnhat           1
           useylm           1
              wtk        0.00195    0.00195    0.00195    0.00195    0.00195    0.00195
                         0.00195    0.00195    0.00195    0.00195    0.00195    0.00195
                         0.00195    0.00195    0.00195    0.00195    0.00195    0.00195
                         0.00195    0.00195    0.00195    0.00195    0.00195    0.00195
                         0.00195    0.00195    0.00195    0.00195    0.00195    0.00195
                         0.00195    0.00195    0.00195    0.00195    0.00195    0.00195
                         0.00195    0.00195    0.00195    0.00195    0.00195    0.00195
                         0.00195    0.00195    0.00195    0.00195    0.00195    0.00195
                         0.00195    0.00195
                       outvars : Printing only first  50 k-points.
           xangst      0.0000000000E+00  0.0000000000E+00  0.0000000000E+00
                       2.1167088344E+00  2.1167088344E+00  2.1167088344E+00
            xcart      0.0000000000E+00  0.0000000000E+00  0.0000000000E+00
                       4.0000000000E+00  4.0000000000E+00  4.0000000000E+00
             xred      0.0000000000E+00  0.0000000000E+00  0.0000000000E+00
                       5.0000000000E-01  5.0000000000E-01  5.0000000000E-01
            znucl       27.00000    8.00000

- Timing analysis has been suppressed with timopt=0

 Suggested references for the acknowledgment of ABINIT usage.

 [1] Gamma and beta cerium: LDA+U calculations of ground-state parameters.
 B. Amadon, F. Jollet and M. Torrent, Phys. Rev. B 77, 155104 (2008).
 Comment : LDA+U calculations, usepawu/=0. Strong suggestion to cite this paper.

 [2] Implementation of the Projector Augmented-Wave Method in the ABINIT code.
 M. Torrent, F. Jollet, F. Bottin, G. Zerah, and X. Gonze Comput. Mat. Science 42, 337, (2008).
 Comment : PAW calculations. Strong suggestion to cite this paper.

 [3] ABINIT : First-principles approach of materials and nanosystem properties.
 X. Gonze, B. Amadon, P.-M. Anglade, J.-M. Beuken, F. Bottin, P. Boulanger, F. Bruneval,
 D. Caliste, R. Caracas, M. Cote, T. Deutsch, L. Genovese, Ph. Ghosez, M. Giantomassi
 S. Goedecker, D.R. Hamann, P. Hermet, F. Jollet, G. Jomard, S. Leroux, M. Mancini, S. Mazevet,
 M.J.T. Oliveira, G. Onida, Y. Pouillon, T. Rangel, G.-M. Rignanese, D. Sangalli, R. Shaltaf,
 M. Torrent, M.J. Verstraete, G. Zerah, J.W. Zwanziger
 Computer Phys. Comm. 180, 2582-2615 (2009).
 Comment : the third generic paper describing the ABINIT project.
 Note that a version of this paper, that is not formatted for Computer Phys. Comm.
 The licence allows the authors to put it on the Web.

 [4] A brief introduction to the ABINIT software package.
 X. Gonze, G.-M. Rignanese, M. Verstraete, J.-M. Beuken, Y. Pouillon, R. Caracas, F. Jollet,
 M. Torrent, G. Zerah, M. Mikami, Ph. Ghosez, M. Veithen, J.-Y. Raty, V. Olevano, F. Bruneval,
 L. Reining, R. Godby, G. Onida, D.R. Hamann, and D.C. Allan.
 Z. Kristallogr. 220, 558-562 (2005).
 Comment : the second generic paper describing the ABINIT project. Note that this paper
 should be cited especially if you are using the GW part of ABINIT, as several authors
 of this part are not in the list of authors of the first or third paper.
 Note that it should not redistributed (Copyright by Oldenburg Wissenshaftverlag,
 the licence allows the authors to put it on the Web).

 And optionally :

 [5] First-principles computation of material properties : the ABINIT software project.
 X. Gonze, J.-M. Beuken, R. Caracas, F. Detraux, M. Fuchs, G.-M. Rignanese, L. Sindic,
 M. Verstraete, G. Zerah, F. Jollet, M. Torrent, A. Roy, M. Mikami, Ph. Ghosez, J.-Y. Raty, D.C. Allan.
 Comment : the original paper describing the ABINIT project.
-

 Calculation completed.
.Delivered    2 WARNINGs and   0 COMMENTs to log file.