.Version 8.6.1 of ABINIT

 ABINIT is a project of the Universite Catholique de Louvain,
 Corning Inc. and other collaborators, see ~abinit/doc/developers/contributors.txt .
 Please read ~abinit/doc/users/acknowledgments.html for suggested
 acknowledgments of the ABINIT effort.

.Starting date : Mon 24 Sep 2018.
- ( at 15h29 )

- input  file    -> mg4c.in
- output file    -> mg.out
- root for input  files -> mgi
- root for output files -> mgo

 DATASET    1 : the unit cell is not primitive
     intxc =       0    ionmov =       0      iscf =       7    lmnmax =       3
     lnmax =       3     mgfft =      64  mpssoang =       3    mqgrid =    3001
     natom =       4  nloc_mem =       1    nspden =       1   nspinor =       1
    nsppol =       1      nsym =       4    n1xccc =       0    ntypat =       1
    occopt =       3   xclevel =       1
-    mband =          20        mffmem =           1         mkmem =           7
       mpw =        3521          nfft =      138240          nkpt =         260
  Rough estimation (10% accuracy) of disk space for files :

[...]

 DATASET    3 : the unit cell is not primitive
     intxc =       0    ionmov =       0      iscf =       7    lmnmax =       3
     lnmax =       3     mgfft =      64  mpssoang =       3    mqgrid =    3001
     natom =       4  nloc_mem =       1    nspden =       1   nspinor =       1
    nsppol =       1      nsym =       4    n1xccc =       0    ntypat =       1
    occopt =       3   xclevel =       1
-    mband =          20        mffmem =           1         mkmem =           7
       mpw =        3521          nfft =      138240          nkpt =         260
  Rough estimation (10% accuracy) of disk space for files :

------------- Echo of variables that govern the present computation ------------
-
- outvars: echo of selected default values
-   iomode0 =  0 , fftalg0 =312 , wfoptalg0 =  0
-
- outvars: echo of global parameters not present in the input file
-  max_nthreads =    0
-
 -outvars: echo values of preprocessed input variables --------
            acell      6.6460934180E+00  1.1511172202E+01  1.0829871008E+01 Bohr
              amu      2.43050000E+01
             ecut      2.00000000E+01 Hartree
-          fftalg         312
           getden1          0
           getden2          1
           getden3          0
           getwfk1          0
           getwfk2          0
           getwfk3          1
           istwfk        2    0    0    0    3    0    0    0    0    0
                         0    0    0    0    0    0    0    0    0    0
                         0    0    0    0    0    0    0    0    0    6
                         0    0    0    7    0    0    0    0    0    0
                         0    0    0    0    0    0    0    0    0    0
                       outvar_i_n : Printing only first  50 k-points.
              ixc           7
           jdtset        1    2    3
              kpt      0.00000000E+00  0.00000000E+00  0.00000000E+00
                       1.25000000E-01  0.00000000E+00  0.00000000E+00
                       2.50000000E-01  0.00000000E+00  0.00000000E+00
                       3.75000000E-01  0.00000000E+00  0.00000000E+00
                       5.00000000E-01  0.00000000E+00  0.00000000E+00
                       0.00000000E+00  1.25000000E-01  0.00000000E+00
                       1.25000000E-01  1.25000000E-01  0.00000000E+00
                       2.50000000E-01  1.25000000E-01  0.00000000E+00
                       3.75000000E-01  1.25000000E-01  0.00000000E+00
                       5.00000000E-01  1.25000000E-01  0.00000000E+00
                      -3.75000000E-01  1.25000000E-01  0.00000000E+00
                      -2.50000000E-01  1.25000000E-01  0.00000000E+00
                      -1.25000000E-01  1.25000000E-01  0.00000000E+00
                       0.00000000E+00  2.50000000E-01  0.00000000E+00
                       1.25000000E-01  2.50000000E-01  0.00000000E+00
                       2.50000000E-01  2.50000000E-01  0.00000000E+00
                       3.75000000E-01  2.50000000E-01  0.00000000E+00
                       5.00000000E-01  2.50000000E-01  0.00000000E+00
                      -3.75000000E-01  2.50000000E-01  0.00000000E+00
                      -2.50000000E-01  2.50000000E-01  0.00000000E+00
                      -1.25000000E-01  2.50000000E-01  0.00000000E+00
                       0.00000000E+00  3.75000000E-01  0.00000000E+00
                       1.25000000E-01  3.75000000E-01  0.00000000E+00
                       2.50000000E-01  3.75000000E-01  0.00000000E+00
                       3.75000000E-01  3.75000000E-01  0.00000000E+00
                       5.00000000E-01  3.75000000E-01  0.00000000E+00
                      -3.75000000E-01  3.75000000E-01  0.00000000E+00
                      -2.50000000E-01  3.75000000E-01  0.00000000E+00
                      -1.25000000E-01  3.75000000E-01  0.00000000E+00
                       0.00000000E+00  5.00000000E-01  0.00000000E+00
                       1.25000000E-01  5.00000000E-01  0.00000000E+00
                       2.50000000E-01  5.00000000E-01  0.00000000E+00
                       3.75000000E-01  5.00000000E-01  0.00000000E+00
                       5.00000000E-01  5.00000000E-01  0.00000000E+00
                       0.00000000E+00  0.00000000E+00  1.25000000E-01
                       1.25000000E-01  0.00000000E+00  1.25000000E-01
                       2.50000000E-01  0.00000000E+00  1.25000000E-01
                       3.75000000E-01  0.00000000E+00  1.25000000E-01
                       5.00000000E-01  0.00000000E+00  1.25000000E-01
                      -3.75000000E-01  0.00000000E+00  1.25000000E-01
                      -2.50000000E-01  0.00000000E+00  1.25000000E-01
                      -1.25000000E-01  0.00000000E+00  1.25000000E-01
                       0.00000000E+00  1.25000000E-01  1.25000000E-01
                       1.25000000E-01  1.25000000E-01  1.25000000E-01
                       2.50000000E-01  1.25000000E-01  1.25000000E-01
                       3.75000000E-01  1.25000000E-01  1.25000000E-01
                       5.00000000E-01  1.25000000E-01  1.25000000E-01
                      -3.75000000E-01  1.25000000E-01  1.25000000E-01
                      -2.50000000E-01  1.25000000E-01  1.25000000E-01
                      -1.25000000E-01  1.25000000E-01  1.25000000E-01
                       outvar_i_n : Printing only first  50 k-points.
         kptrlatt        8    0    0      0    8    0      0    0    8
          kptrlen      5.31687473E+01
P           mkmem           7
            natom           4
            nband          20
           ndtset           3
            ngfft          36      64      60
             nkpt         260
            nstep         100
             nsym           4
           ntypat           1
              occ      2.000000  2.000000  2.000000  2.000000  0.000000  0.000000
                       0.000000  0.000000  0.000000  0.000000  0.000000  0.000000
                       0.000000  0.000000  0.000000  0.000000  0.000000  0.000000
                       0.000000  0.000000
                       2.000000  2.000000  2.000000  2.000000  0.000000  0.000000
                       0.000000  0.000000  0.000000  0.000000  0.000000  0.000000
                       0.000000  0.000000  0.000000  0.000000  0.000000  0.000000
                       0.000000  0.000000
                       2.000000  2.000000  2.000000  2.000000  0.000000  0.000000
                       0.000000  0.000000  0.000000  0.000000  0.000000  0.000000
                       0.000000  0.000000  0.000000  0.000000  0.000000  0.000000
                       0.000000  0.000000
                       2.000000  2.000000  2.000000  2.000000  0.000000  0.000000
                       0.000000  0.000000  0.000000  0.000000  0.000000  0.000000
                       0.000000  0.000000  0.000000  0.000000  0.000000  0.000000
                       0.000000  0.000000
                       2.000000  2.000000  2.000000  2.000000  0.000000  0.000000
                       0.000000  0.000000  0.000000  0.000000  0.000000  0.000000
                       0.000000  0.000000  0.000000  0.000000  0.000000  0.000000
                       0.000000  0.000000
                       2.000000  2.000000  2.000000  2.000000  0.000000  0.000000
                       0.000000  0.000000  0.000000  0.000000  0.000000  0.000000
                       0.000000  0.000000  0.000000  0.000000  0.000000  0.000000
                       0.000000  0.000000
                       2.000000  2.000000  2.000000  2.000000  0.000000  0.000000
                       0.000000  0.000000  0.000000  0.000000  0.000000  0.000000
                       0.000000  0.000000  0.000000  0.000000  0.000000  0.000000
                       0.000000  0.000000
                       2.000000  2.000000  2.000000  2.000000  0.000000  0.000000
                       0.000000  0.000000  0.000000  0.000000  0.000000  0.000000
                       0.000000  0.000000  0.000000  0.000000  0.000000  0.000000
                       0.000000  0.000000
                       2.000000  2.000000  2.000000  2.000000  0.000000  0.000000
                       0.000000  0.000000  0.000000  0.000000  0.000000  0.000000
                       0.000000  0.000000  0.000000  0.000000  0.000000  0.000000
                       0.000000  0.000000
                       2.000000  2.000000  2.000000  2.000000  0.000000  0.000000
                       0.000000  0.000000  0.000000  0.000000  0.000000  0.000000
                       0.000000  0.000000  0.000000  0.000000  0.000000  0.000000
                       0.000000  0.000000
                       2.000000  2.000000  2.000000  2.000000  0.000000  0.000000
                       0.000000  0.000000  0.000000  0.000000  0.000000  0.000000
                       0.000000  0.000000  0.000000  0.000000  0.000000  0.000000
                       0.000000  0.000000
                       2.000000  2.000000  2.000000  2.000000  0.000000  0.000000
                       0.000000  0.000000  0.000000  0.000000  0.000000  0.000000
                       0.000000  0.000000  0.000000  0.000000  0.000000  0.000000
                       0.000000  0.000000
                       2.000000  2.000000  2.000000  2.000000  0.000000  0.000000
                       0.000000  0.000000  0.000000  0.000000  0.000000  0.000000
                       0.000000  0.000000  0.000000  0.000000  0.000000  0.000000
                       0.000000  0.000000
                       2.000000  2.000000  2.000000  2.000000  0.000000  0.000000
                       0.000000  0.000000  0.000000  0.000000  0.000000  0.000000
                       0.000000  0.000000  0.000000  0.000000  0.000000  0.000000
                       0.000000  0.000000
                       2.000000  2.000000  2.000000  2.000000  0.000000  0.000000
                       0.000000  0.000000  0.000000  0.000000  0.000000  0.000000
                       0.000000  0.000000  0.000000  0.000000  0.000000  0.000000
[...]
                       0.175773  0.060340  0.050101  0.030980  0.007598  0.003987
                       0.002652  0.001137  0.000796  0.000270  0.000049  0.000024
                       0.000006  0.000004
                       1.995093  1.839216  1.502882  1.418329  1.297883  0.347948
                       0.082699  0.068283  0.030526  0.009135  0.005748  0.000384
                       0.000227  0.000185  0.000100  0.000085  0.000054  0.000030
                       0.000010  0.000007
                       1.994953  1.952757  1.543570  1.347964  0.768012  0.675368
                       0.238018  0.025001  0.003640  0.002158  0.001658  0.000784
                       0.000758  0.000089  0.000061  0.000044  0.000027  0.000024
                       0.000014  0.000010
                       1.993441  1.950131  1.456306  1.223193  0.728168  0.506066
                       0.225843  0.049668  0.015600  0.002113  0.001497  0.001492
                       0.000407  0.000352  0.000266  0.000100  0.000039  0.000038
                       0.000026  0.000012
                       1.987062  1.921476  1.171778  0.891927  0.523793  0.484035
[...]
                       0.294332  0.121809  0.090354  0.079441  0.044532  0.032001
                       0.003608  0.002449  0.002217  0.000499  0.000439  0.000429
                       0.000030  0.000004
                       1.973458  1.400710  1.256792  1.139543  0.729431  0.333566
                       0.287575  0.154428  0.087807  0.022179  0.016328  0.009345
                       0.008100  0.006647  0.001956  0.000519  0.000084  0.000062
                       0.000013  0.000008
                       1.990382  1.634542  1.623586  1.142471  0.622227  0.468623
                       0.337020  0.051683  0.026192  0.018003  0.010806  0.005070
                       0.003043  0.001360  0.000819  0.000083  0.000044  0.000018
                       0.000014  0.000005
                       1.994756  1.809484  1.775844  1.321846  0.904144  0.725798
                       0.038612  0.037705  0.024722  0.012839  0.004937  0.000685
                       0.000312  0.000123  0.000121  0.000078  0.000060  0.000028
                       0.000022  0.000008
                       prtocc : prtvol=0, do not print more k-points.
              occ2     1.996202  1.741941  1.672276  1.570131  1.536550  0.268881
                       0.155525  0.043196  0.025624  0.003411  0.001176  0.000250
                       0.000164  0.000049  0.000046  0.000033  0.000025  0.000014
                       0.000010  0.000009
                       1.995310  1.718033  1.579763  1.496653  1.460466  0.235913
                       0.127113  0.047694  0.038020  0.015591  0.002612  0.000430
                       0.000316  0.000196  0.000074  0.000063  0.000038  0.000024
                       0.000016  0.000009
                       1.991191  1.596472  1.264028  1.236357  1.189502  0.476033
                       0.152481  0.061268  0.026318  0.025538  0.009259  0.004806
                       0.003446  0.002586  0.000572  0.000120  0.000065  0.000030
                       0.000009  0.000008
                       1.975093  1.507849  1.233702  0.752151  0.693374  0.688155
                       0.176242  0.074335  0.051683  0.034780  0.026095  0.017771
                       0.010054  0.004002  0.002314  0.000785  0.000565  0.000075
                       0.000016  0.000002
                       1.897802  1.897802  0.666127  0.666127  0.288912  0.288912
                       0.253004  0.253004  0.137984  0.137984  0.019527  0.019527
                       0.004265  0.004265  0.003152  0.003152  0.000500  0.000500
                       0.000006  0.000006
                       1.995922  1.887290  1.574507  1.480808  1.289516  0.453531
                       0.102459  0.073446  0.009850  0.003244  0.001054  0.000417
                       0.000298  0.000057  0.000048  0.000031  0.000030  0.000017
                       0.000011  0.000009
                       1.994832  1.883933  1.499706  1.380454  1.087648  0.433401
                       0.101486  0.061025  0.040617  0.005472  0.001188  0.000578
                       0.000427  0.000380  0.000204  0.000056  0.000040  0.000018
                       0.000016  0.000015
                       1.990048  1.825240  1.235823  1.075653  0.691528  0.502670
                       0.299200  0.065873  0.024044  0.010350  0.007750  0.005673
                       0.004601  0.002024  0.000316  0.000196  0.000144  0.000053
                       0.000026  0.000008
                       1.971191  1.652968  1.476957  0.742797  0.586419  0.280716
                       0.145081  0.078303  0.066153  0.051184  0.039904  0.025678
                       0.006408  0.002468  0.001131  0.000678  0.000370  0.000168
                       0.000104  0.000005
                       1.901108  1.879749  1.106734  0.523992  0.300490  0.269168
                       0.243908  0.232291  0.154379  0.054146  0.038744  0.014585
                       0.008550  0.005820  0.002176  0.001408  0.000821  0.000142
                       0.000039  0.000003
                       1.975266  1.420132  1.226754  0.748922  0.709097  0.703115
                       0.377223  0.069001  0.045597  0.029858  0.018028  0.009034
                       0.008651  0.007460  0.002627  0.001791  0.000210  0.000022
                       0.000014  0.000010
                       1.991022  1.677145  1.242087  1.164943  1.118681  0.409441
                       0.175773  0.060340  0.050101  0.030980  0.007598  0.003987
                       0.002652  0.001137  0.000796  0.000270  0.000049  0.000024
                       0.000006  0.000004
                       1.995093  1.839216  1.502882  1.418329  1.297883  0.347948
                       0.082699  0.068283  0.030526  0.009135  0.005748  0.000384
                       0.000227  0.000185  0.000100  0.000085  0.000054  0.000030
                       0.000010  0.000007
                       1.994953  1.952757  1.543570  1.347964  0.768012  0.675368
                       0.238018  0.025001  0.003640  0.002158  0.001658  0.000784
                       0.000758  0.000089  0.000061  0.000044  0.000027  0.000024
                       0.000014  0.000010
                       1.993441  1.950131  1.456306  1.223193  0.728168  0.506066
                       0.225843  0.049668  0.015600  0.002113  0.001497  0.001492
                       0.000407  0.000352  0.000266  0.000100  0.000039  0.000038
                       0.000026  0.000012
                       1.987062  1.921476  1.171778  0.891927  0.523793  0.484035
[...]
                       0.294332  0.121809  0.090354  0.079441  0.044532  0.032001
                       0.003608  0.002449  0.002217  0.000499  0.000439  0.000429
                       0.000030  0.000004
                       1.973458  1.400710  1.256792  1.139543  0.729431  0.333566
                       0.287575  0.154428  0.087807  0.022179  0.016328  0.009345
                       0.008100  0.006647  0.001956  0.000519  0.000084  0.000062
                       0.000013  0.000008
                       1.990382  1.634542  1.623586  1.142471  0.622227  0.468623
                       0.337020  0.051683  0.026192  0.018003  0.010806  0.005070
                       0.003043  0.001360  0.000819  0.000083  0.000044  0.000018
                       0.000014  0.000005
                       1.994756  1.809484  1.775844  1.321846  0.904144  0.725798
                       0.038612  0.037705  0.024722  0.012839  0.004937  0.000685
                       0.000312  0.000123  0.000121  0.000078  0.000060  0.000028
                       0.000022  0.000008
                       prtocc : prtvol=0, do not print more k-points.
              occ3     1.996202  1.741941  1.672276  1.570131  1.536550  0.268881
                       0.155525  0.043196  0.025624  0.003411  0.001176  0.000250
                       0.000164  0.000049  0.000046  0.000033  0.000025  0.000014
                       0.000010  0.000010
                       1.995310  1.718033  1.579763  1.496653  1.460466  0.235913
                       0.127113  0.047694  0.038020  0.015591  0.002612  0.000430
                       0.000316  0.000196  0.000074  0.000063  0.000038  0.000024
                       0.000016  0.000009
                       1.991191  1.596472  1.264027  1.236357  1.189502  0.476033
                       0.152481  0.061268  0.026318  0.025538  0.009259  0.004806
                       0.003446  0.002586  0.000572  0.000120  0.000065  0.000030
                       0.000009  0.000008
                       1.975093  1.507849  1.233702  0.752151  0.693374  0.688155
                       0.176242  0.074335  0.051683  0.034780  0.026095  0.017771
                       0.010054  0.004002  0.002314  0.000785  0.000565  0.000075
                       0.000016  0.000002
                       1.897802  1.897802  0.666127  0.666127  0.288912  0.288912
                       0.253004  0.253004  0.137984  0.137984  0.019527  0.019527
                       0.004265  0.004265  0.003152  0.003152  0.000500  0.000500
                       0.000006  0.000006
                       1.995922  1.887290  1.574507  1.480808  1.289516  0.453531
                       0.102459  0.073446  0.009850  0.003244  0.001054  0.000417
                       0.000298  0.000057  0.000048  0.000031  0.000030  0.000017
                       0.000011  0.000009
                       1.994832  1.883933  1.499706  1.380454  1.087648  0.433401
                       0.101486  0.061025  0.040617  0.005472  0.001188  0.000578
                       0.000427  0.000380  0.000204  0.000056  0.000040  0.000018
                       0.000016  0.000015
                       1.990048  1.825240  1.235823  1.075653  0.691528  0.502670
                       0.299200  0.065873  0.024044  0.010350  0.007750  0.005673
                       0.004601  0.002024  0.000316  0.000196  0.000144  0.000053
                       0.000026  0.000008
                       1.971191  1.652968  1.476957  0.742797  0.586419  0.280716
                       0.145081  0.078303  0.066153  0.051184  0.039904  0.025678
                       0.006408  0.002468  0.001131  0.000678  0.000370  0.000168
                       0.000104  0.000005
                       1.901108  1.879749  1.106734  0.523992  0.300490  0.269168
                       0.243908  0.232291  0.154379  0.054146  0.038744  0.014585
                       0.008550  0.005820  0.002176  0.001408  0.000821  0.000142
                       0.000039  0.000003
                       1.975266  1.420132  1.226754  0.748922  0.709097  0.703115
                       0.377223  0.069001  0.045597  0.029858  0.018028  0.009034
                       0.008651  0.007460  0.002627  0.001791  0.000210  0.000022
                       0.000014  0.000010
                       1.991022  1.677145  1.242087  1.164943  1.118681  0.409441
                       0.175773  0.060340  0.050101  0.030980  0.007598  0.003987
                       0.002652  0.001137  0.000796  0.000270  0.000049  0.000024
                       0.000006  0.000004
                       1.995093  1.839216  1.502882  1.418329  1.297883  0.347948
                       0.082699  0.068283  0.030526  0.009135  0.005748  0.000384
                       0.000227  0.000185  0.000100  0.000085  0.000054  0.000030
                       0.000010  0.000007
                       1.994953  1.952757  1.543570  1.347964  0.768012  0.675368
                       0.238018  0.025001  0.003640  0.002158  0.001658  0.000784
                       0.000758  0.000089  0.000061  0.000044  0.000027  0.000024
                       0.000014  0.000010
                       1.993441  1.950131  1.456306  1.223193  0.728168  0.506066
                       0.225843  0.049668  0.015600  0.002113  0.001497  0.001492
                       0.000407  0.000352  0.000266  0.000100  0.000039  0.000038
                       0.000026  0.000012
                       1.987062  1.921476  1.171778  0.891927  0.523793  0.484035
[...]
                       0.294332  0.121809  0.090354  0.079441  0.044532  0.032001
                       0.003608  0.002449  0.002217  0.000499  0.000439  0.000429
                       0.000030  0.000004
                       1.973458  1.400710  1.256792  1.139543  0.729431  0.333566
                       0.287575  0.154428  0.087807  0.022179  0.016328  0.009345
                       0.008100  0.006647  0.001956  0.000519  0.000084  0.000062
                       0.000013  0.000008
                       1.990382  1.634542  1.623586  1.142471  0.622227  0.468623
                       0.337020  0.051683  0.026192  0.018003  0.010806  0.005070
                       0.003043  0.001360  0.000819  0.000083  0.000044  0.000018
                       0.000014  0.000005
                       1.994756  1.809484  1.775844  1.321846  0.904144  0.725798
                       0.038612  0.037705  0.024722  0.012839  0.004937  0.000685
                       0.000312  0.000123  0.000121  0.000078  0.000060  0.000028
                       0.000022  0.000008
                       prtocc : prtvol=0, do not print more k-points.
           occopt           3
           prtden1          1
           prtden2          0
           prtden3          0
           prteig           0
            prtwf1          1
            prtwf2          0
            prtwf3          0
            rprim      1.0000000000E+00  0.0000000000E+00  0.0000000000E+00
                      -1.0452846327E-01  9.9452189537E-01  0.0000000000E+00
                       6.1232339957E-17  1.0510423527E-01  9.9446121077E-01
           strten1     1.4433270745E-04  1.3324481179E-04  1.3719616634E-04
                       1.2967640146E-05  9.7876639229E-07 -1.8788844050E-05
           strten2     1.4433270713E-04  1.3324481298E-04  1.3719616524E-04
                       1.2967640229E-05  9.7876654548E-07 -1.8788845211E-05
           strten3     1.4433270089E-04  1.3324481519E-04  1.3719616647E-04
                       1.2967642974E-05  9.7877014328E-07 -1.8788836117E-05
           symrel      1  0  0   0  1  0   0  0  1       1  0  0   0  1  0   0  0  1
                      -1  0  0   0 -1  0   0  0 -1      -1  0  0   0 -1  0   0  0 -1
            tnons      0.0000000  0.0000000  0.0000000     0.5000000  0.5000000  0.0000000
                       0.0000000 -0.3333333  0.5000000     0.5000000  0.1666667  0.5000000
           toldfe      1.00000000E-10 Hartree
           tsmear      3.33000000E-02 Hartree
            typat      1  1  1  1
              wtk        0.00195    0.00391    0.00391    0.00391    0.00195    0.00391
                         0.00391    0.00391    0.00391    0.00391    0.00391    0.00391
                         0.00391    0.00391    0.00391    0.00391    0.00391    0.00391
                         0.00391    0.00391    0.00391    0.00391    0.00391    0.00391
                         0.00391    0.00391    0.00391    0.00391    0.00391    0.00195
                         0.00391    0.00391    0.00391    0.00195    0.00391    0.00391
                         0.00391    0.00391    0.00391    0.00391    0.00391    0.00391
                         0.00391    0.00391    0.00391    0.00391    0.00391    0.00391
                         0.00391    0.00391
                       outvars : Printing only first  50 k-points.
           xangst     -2.7766656531E-02  4.3705074571E-02  9.8309702659E-03
                       1.4123489726E+00  3.0727452612E+00  9.8309702659E-03
                      -3.9671994667E-01  4.2961872040E+00  2.8397583030E+00
                       1.6801255872E+00  1.2671470174E+00  2.8397583030E+00
            xcart     -5.2471376470E-02  8.2590621557E-02  1.8577841423E-02
                       2.6689527622E+00  5.8066470198E+00  1.8577841423E-02
                      -7.4969205066E-01  8.1186172313E+00  5.3663654762E+00
                       3.1749772287E+00  2.3945608330E+00  5.3663654762E+00
             xred     -6.6199976720E-03  7.0428321108E-03  1.7249802205E-03
                       4.9338000233E-01  5.0704283211E-01  1.7249802205E-03
                       6.6199976729E-03  6.5962383456E-01  4.9827501978E-01
                       5.0661999767E-01  1.5962383456E-01  4.9827501978E-01
            znucl       12.00000

- Timing analysis has been suppressed with timopt=0

 Suggested references for the acknowledgment of ABINIT usage.

 Calculation completed.
.Delivered   0 WARNINGs and   6 COMMENTs to log file.