.Version 8.8.4 of ABINIT

 ABINIT is a project of the Universite Catholique de Louvain,
 Corning Inc. and other collaborators, see ~abinit/doc/developers/contributors.txt .
 Please read ~abinit/doc/users/acknowledgments.html for suggested
 acknowledgments of the ABINIT effort.

.Starting date : Mon 31 Aug 2020.
- ( at 10h54 )

- The starting date is more than 2 years after the initial release
- of this version of ABINIT, namely Jul 2018.
- Note that the use beyond 3 years after the release will not be supported.
- Action: please, switch to a more recent version of ABINIT.

- input  file    -> run.in
- output file    -> run.out
- root for input  files -> in
- root for output files -> out

- inpspheads : Reading pseudopotential header in XML form from Ga.GGA_PBE-JTH.xml
- inpspheads : Reading pseudopotential header in XML form from N.GGA_PBE-JTH.xml

 DATASET   11 : space group P1 (#  1); Bravais aP (primitive triclinic)
     intxc =       0    ionmov =       0      iscf =      17    lmnmax =      18
     lnmax =       6     mgfft =      50  mpssoang =       3    mqgrid =    3001
     natom =       4  nloc_mem =       2    nspden =       1   nspinor =       1
    nsppol =       1      nsym =       1    n1xccc =       1    ntypat =       2
    occopt =       1   xclevel =       2
-    mband =          18        mffmem =           1         mkmem =          16
       mpw =        2448          nfft =       45000          nkpt =        2048
Pmy_natom=         1
 PAW method is used; the additional fine FFT grid is defined by:
   mgfftf=        50    nfftf =     45000
  Rough estimation (10% accuracy) of disk space for files :

[...]

 DATASET   32 : space group P1 (#  1); Bravais aP (primitive triclinic)
     intxc =       0    ionmov =       0      iscf =      17    lmnmax =      18
     lnmax =       6     mgfft =      50  mpssoang =       3    mqgrid =    3001
     natom =       4  nloc_mem =       2    nspden =       1   nspinor =       1
    nsppol =       1      nsym =       1    n1xccc =       1    ntypat =       2
    occopt =       1   xclevel =       2
-    mband =          18        mffmem =           1         mkmem =          16
       mpw =        2448          nfft =       45000          nkpt =        2048
Pmy_natom=         1
 PAW method is used; the additional fine FFT grid is defined by:
   mgfftf=        50    nfftf =     45000
  Rough estimation (10% accuracy) of disk space for files :

------------- Echo of variables that govern the present computation ------------
-
- outvars: echo of selected default values
-   iomode0 =  0 , fftalg0 =112 , wfoptalg0 = 10
-
- outvars: echo of global parameters not present in the input file
-  max_nthreads =    0
-
 -outvars: echo values of preprocessed input variables --------
            acell      6.0899819756E+00  6.0899819756E+00  9.9216296528E+00 Bohr
              amu      6.97230000E+01  1.40067400E+01
         berryopt11        -1
         berryopt21         4
         berryopt22         4
         berryopt31         4
         berryopt32         4
             ecut      2.93994603E+01 Hartree
           efield11    0.00000000E+00  0.00000000E+00  0.00000000E+00
           efield21    1.00000000E-07  1.00000000E-07  1.00000000E-07
           efield22    2.00000000E-07  2.00000000E-07  2.00000000E-07
           efield31   -1.00000000E-07 -1.00000000E-07 -1.00000000E-07
           efield32   -2.00000000E-07 -2.00000000E-07 -2.00000000E-07
-          fftalg         112
           getwfk11         0
           getwfk21        11
           getwfk22        21
           getwfk31        11
           getwfk32        31
              ixc     -101130
           jdtset       11   21   22   31   32
              kpt      0.00000000E+00  0.00000000E+00  3.12500000E-02
                       6.25000000E-02  0.00000000E+00  3.12500000E-02
                       1.25000000E-01  0.00000000E+00  3.12500000E-02
                       1.87500000E-01  0.00000000E+00  3.12500000E-02
                       2.50000000E-01  0.00000000E+00  3.12500000E-02
                       3.12500000E-01  0.00000000E+00  3.12500000E-02
                       3.75000000E-01  0.00000000E+00  3.12500000E-02
                       4.37500000E-01  0.00000000E+00  3.12500000E-02
                       5.00000000E-01  0.00000000E+00  3.12500000E-02
                      -4.37500000E-01  0.00000000E+00  3.12500000E-02
                      -3.75000000E-01  0.00000000E+00  3.12500000E-02
                      -3.12500000E-01  0.00000000E+00  3.12500000E-02
                      -2.50000000E-01  0.00000000E+00  3.12500000E-02
                      -1.87500000E-01  0.00000000E+00  3.12500000E-02
                      -1.25000000E-01  0.00000000E+00  3.12500000E-02
                      -6.25000000E-02  0.00000000E+00  3.12500000E-02
                       0.00000000E+00  6.25000000E-02  3.12500000E-02
                       6.25000000E-02  6.25000000E-02  3.12500000E-02
                       1.25000000E-01  6.25000000E-02  3.12500000E-02
                       1.87500000E-01  6.25000000E-02  3.12500000E-02
                       2.50000000E-01  6.25000000E-02  3.12500000E-02
                       3.12500000E-01  6.25000000E-02  3.12500000E-02
                       3.75000000E-01  6.25000000E-02  3.12500000E-02
                       4.37500000E-01  6.25000000E-02  3.12500000E-02
                       5.00000000E-01  6.25000000E-02  3.12500000E-02
                      -4.37500000E-01  6.25000000E-02  3.12500000E-02
                      -3.75000000E-01  6.25000000E-02  3.12500000E-02
                      -3.12500000E-01  6.25000000E-02  3.12500000E-02
                      -2.50000000E-01  6.25000000E-02  3.12500000E-02
                      -1.87500000E-01  6.25000000E-02  3.12500000E-02
                      -1.25000000E-01  6.25000000E-02  3.12500000E-02
                      -6.25000000E-02  6.25000000E-02  3.12500000E-02
                       0.00000000E+00  1.25000000E-01  3.12500000E-02
                       6.25000000E-02  1.25000000E-01  3.12500000E-02
                       1.25000000E-01  1.25000000E-01  3.12500000E-02
                       1.87500000E-01  1.25000000E-01  3.12500000E-02
                       2.50000000E-01  1.25000000E-01  3.12500000E-02
                       3.12500000E-01  1.25000000E-01  3.12500000E-02
                       3.75000000E-01  1.25000000E-01  3.12500000E-02
                       4.37500000E-01  1.25000000E-01  3.12500000E-02
                       5.00000000E-01  1.25000000E-01  3.12500000E-02
                      -4.37500000E-01  1.25000000E-01  3.12500000E-02
                      -3.75000000E-01  1.25000000E-01  3.12500000E-02
                      -3.12500000E-01  1.25000000E-01  3.12500000E-02
                      -2.50000000E-01  1.25000000E-01  3.12500000E-02
                      -1.87500000E-01  1.25000000E-01  3.12500000E-02
                      -1.25000000E-01  1.25000000E-01  3.12500000E-02
                      -6.25000000E-02  1.25000000E-01  3.12500000E-02
                       0.00000000E+00  1.87500000E-01  3.12500000E-02
                       6.25000000E-02  1.87500000E-01  3.12500000E-02
                       outvar_i_n : Printing only first  50 k-points.
           kptopt           2
         kptrlatt       16    0    0      0   16    0      0    0   16
          kptrlen      9.74397116E+01
P           mkmem          16
            natom           4
            nband          18
           ndtset           5
            ngfft          30      30      50
          ngfftdg          30      30      50
             nkpt        2048
            nstep         100
             nsym           1
           ntypat           2
              occ      2.000000  2.000000  2.000000  2.000000  2.000000  2.000000
                       2.000000  2.000000  2.000000  2.000000  2.000000  2.000000
                       2.000000  2.000000  2.000000  2.000000  2.000000  2.000000
        pawecutdg      2.93994603E+01 Hartree
            rfdir11         1       1       1
            rfdir21         0       0       0
            rfdir22         0       0       0
            rfdir31         0       0       0
            rfdir32         0       0       0
            rprim      5.0000000000E-01 -8.6602540378E-01  0.0000000000E+00
                       5.0000000000E-01  8.6602540378E-01  0.0000000000E+00
                       0.0000000000E+00  0.0000000000E+00  1.0000000000E+00
           shiftk      0.00000000E+00  0.00000000E+00  5.00000000E-01
          spgroup           1
        symmorphi           0
           toldfe      1.00000000E-12 Hartree
            typat      1  1  2  2
           useylm           1
              wtk        0.00049    0.00049    0.00049    0.00049    0.00049    0.00049
                         0.00049    0.00049    0.00049    0.00049    0.00049    0.00049
                         0.00049    0.00049    0.00049    0.00049    0.00049    0.00049
                         0.00049    0.00049    0.00049    0.00049    0.00049    0.00049
                         0.00049    0.00049    0.00049    0.00049    0.00049    0.00049
                         0.00049    0.00049    0.00049    0.00049    0.00049    0.00049
                         0.00049    0.00049    0.00049    0.00049    0.00049    0.00049
                         0.00049    0.00049    0.00049    0.00049    0.00049    0.00049
                         0.00049    0.00049
                       outvars : Printing only first  50 k-points.
           xangst      1.6113398311E+00  9.3030748526E-01  0.0000000000E+00
                       1.6113398311E+00 -9.3030748526E-01  2.6251501422E+00
                       1.6113398311E+00  9.3030748526E-01  1.9779226545E+00
                       1.6113398311E+00 -9.3030748526E-01  4.6030727967E+00
            xcart      3.0449909878E+00  1.7580263665E+00  0.0000000000E+00
                       3.0449909878E+00 -1.7580263665E+00  4.9608148264E+00
                       3.0449909878E+00  1.7580263665E+00  3.7377321291E+00
                       3.0449909878E+00 -1.7580263665E+00  8.6985469555E+00
             xred      3.3333333333E-01  6.6666666667E-01  0.0000000000E+00
                       6.6666666667E-01  3.3333333333E-01  5.0000000000E-01
                       3.3333333333E-01  6.6666666667E-01  3.7672562471E-01
                       6.6666666667E-01  3.3333333333E-01  8.7672562471E-01
            znucl       31.00000    7.00000

 chkinp: Checking input parameters for consistency, jdtset=  11.

[...]

 chkinp: Checking input parameters for consistency, jdtset=  32.

== DATASET 11 ==================================================================
-   nproc =  128

 Real(R)+Recip(G) space primitive vectors, cartesian coordinates (Bohr,Bohr^-1):
 R(1)=  3.0449910 -5.2740791  0.0000000  G(1)=  0.1642041 -0.0948033  0.0000000
 R(2)=  3.0449910  5.2740791  0.0000000  G(2)=  0.1642041  0.0948033  0.0000000
 R(3)=  0.0000000  0.0000000  9.9216297  G(3)=  0.0000000  0.0000000  0.1007899
 Unit cell volume ucvol=  3.1867329E+02 bohr^3
 Angles (23,13,12)=  9.00000000E+01  9.00000000E+01  1.20000000E+02 degrees
[...]
  -0.00003   0.00000  -0.00000  -0.04303  -0.00000  -0.00000   0.00167  -0.00000  -0.00000   0.00000  -0.00499   0.00000 ...
   0.00000  -0.00000   0.00000  -0.00000  -0.04413   0.00000  -0.00000   0.00171  -0.00414  -0.00000  -0.00000   0.00288 ...
   0.00000  -0.00000  -0.00000   0.00000   0.00013   0.00000  -0.00000  -0.00414   2.00387  -0.00000  -0.00000   0.00016 ...
  -0.00000   0.00000   0.00028  -0.00000   0.00000   0.00288   0.00000  -0.00000  -0.00000   2.00384  -0.00000   0.00000 ...
   0.00031  -0.00009   0.00000   0.00016   0.00000  -0.00000  -0.00499  -0.00000  -0.00000  -0.00000   2.00356  -0.00000 ...
  -0.00000   0.00000   0.00000  -0.00000   0.00028  -0.00000   0.00000   0.00288   0.00016   0.00000  -0.00000   2.00384 ...
   ...  only 12  components have been written...
 Atom #  4
   1.89634  -0.04322  -0.00000  -0.00119  -0.00000  -0.00000  -0.00006  -0.00000
  -0.04322   0.00179  -0.00000  -0.00026  -0.00000   0.00000   0.00001   0.00000
  -0.00000  -0.00000   1.53264  -0.00000   0.00000  -0.04229  -0.00000   0.00000
  -0.00119  -0.00026  -0.00000   1.52720  -0.00000  -0.00000  -0.04206  -0.00000
  -0.00000  -0.00000   0.00000  -0.00000   1.53264   0.00000  -0.00000  -0.04229
  -0.00000   0.00000  -0.04229  -0.00000   0.00000   0.00135   0.00000  -0.00000
  -0.00006   0.00001  -0.00000  -0.04206  -0.00000   0.00000   0.00134   0.00000
  -0.00000   0.00000   0.00000  -0.00000  -0.04229  -0.00000   0.00000   0.00135

 ----iterations are completed or convergence reached----

 Mean square residual over all n,k,spin=   1.4039E-13; max=  1.4499E-09
 reduced coordinates (array xred) for    4 atoms
       0.333333333330      0.666666666670      0.000000000000
       0.666666666670      0.333333333330      0.500000000000
       0.333333333330      0.666666666670      0.376725624710
       0.666666666670      0.333333333330      0.876725624710
 rms dE/dt=  2.6693E-04; max dE/dt=  1.8593E-05; dE/dt below (all hartree)
    1      -0.000004991694      0.000018593122     -0.000270008207
    2      -0.000004992961      0.000018593463     -0.000270012195
    3       0.000000981793     -0.000003630224     -0.000595146329
    4       0.000000980946     -0.000003630218     -0.000595157975

 cartesian coordinates (angstrom) at end:
    1      1.61133983110571     0.93030748526345     0.00000000000000
    2      1.61133983110571    -0.93030748526345     2.62515014216624
    3      1.61133983110571     0.93030748526345     1.97792265453024
    4      1.61133983110571    -0.93030748526345     4.60307279669648

 cartesian forces (hartree/bohr) at end:
    1     -0.00000133421920    -0.00000133651778    -0.00001638571232
    2     -0.00000133406731    -0.00000133667028    -0.00001638531040
    3      0.00000133407419     0.00000133663446     0.00001638492446
    4      0.00000133421232     0.00000133655360     0.00001638609826
 frms,max,avg= 9.5228043E-06 1.6386098E-05  -8.992E-07 -8.994E-07  4.360E-05 h/b

 cartesian forces (eV/Angstrom) at end:
    1     -0.00006860830398    -0.00006872650170    -0.00084258713449
    2     -0.00006860049371    -0.00006873434381    -0.00084256646675
    3      0.00006860084733     0.00006873250185     0.00084254662093
    4      0.00006860795035     0.00006872834366     0.00084260698031
 frms,max,avg= 4.8968224E-04 8.4260698E-04  -4.624E-05 -4.625E-05  2.242E-03 e/A
 length scales=  6.089981975600  6.089981975600  9.921629652800 bohr
              =  3.222679662211  3.222679662211  5.250300284332 angstroms
 prteigrs : about to open file out_DS32_EIG
 Fermi (or HOMO) energy (hartree) =   0.19951   Average Vxc (hartree)=  -0.38963
 Eigenvalues (hartree) for nkpt=2048  k points:
 kpt#   1, nband= 18, wtk=  0.00049, kpt=  0.0000  0.0000  0.0313 (reduced coord)
  -0.37766   -0.34801   -0.29387   -0.29338   -0.29338   -0.29139   -0.29139   -0.28522
  -0.28522   -0.28194   -0.28194   -0.23661   -0.05120    0.16324    0.16324    0.19674
   0.19951    0.19951
 prteigrs : prtvol=0 or 1, do not print more k-points.

 Components of total free energy (in Hartree) :

    Kinetic energy  =  2.17284142056150E+01
    Hartree energy  =  4.75557168272835E+01
    XC energy       = -8.64568997266819E+00
    Ewald energy    = -1.15345088011891E+02
    PspCore energy  =  6.03323656118641E+00
    Loc. psp. energy= -1.31754755023961E+02
    Spherical terms =  2.14903037982309E+00
    Electric energy = -5.32538708253813E-07
    Kohn-Sham energy= -1.78279135034613E+02
    >>>>>>>>> Etotal= -1.78279135567151E+02

 "Double-counting" decomposition of free energy:
    Band energy     = -5.92256065217870E+00
    Ewald energy    = -1.15345088011891E+02
    PspCore energy  =  6.03323656118641E+00
    Dble-C XC-energy= -4.57205834987293E+01
    Electric field  = -5.32538708253813E-07
    Spherical terms = -1.73241394498258E+01
    >>>> Etotal (DC)= -1.78279135583977E+02

  >Total energy in eV           = -4.85122199214673E+03
  >Total DC energy in eV        = -4.85122199260459E+03

Constant unreduced E calculation  - final values:
 (a. u.)
       E:  -2.000000000E-07  -2.000000000E-07  -2.000000000E-07
       P:  -7.546945905E-08  -7.691699969E-08  -8.355383057E-03

    ebar:   4.458176223E-07  -1.663814017E-06  -1.984325931E-06
    pbar:   2.209953576E-06  -7.985553585E-06  -1.041739762E+00

       e:  -3.519900437E-07  -1.313644727E-06  -5.111905042E-07
       p:  -1.625364602E-06  -6.272885535E-06  -2.683669382E-01

 (S.I.), that is V/m for E, and C/m^2 for P
-      E:  -1.028441264E+05  -1.028441264E+05  -1.028441264E+05
       P:  -4.317967099E-06  -4.400787791E-06  -4.780512487E-01

 Please check: COMMENT -
  As a rough estimate,
  to be below the critical field, the bandgap of your system
  should be larger than    0.00 eV.

 Cartesian components of stress tensor (hartree/bohr^3)
  sigma(1 1)=  1.27669949E-06  sigma(3 2)=  1.74620778E-09
  sigma(2 2)=  1.27670024E-06  sigma(3 1)=  1.74252434E-09
  sigma(3 3)=  1.43756924E-06  sigma(2 1)= -9.33037117E-13

-Cartesian components of stress tensor (GPa)         [Pressure= -3.9139E-02 GPa]
- sigma(1 1)=  3.75617894E-02  sigma(3 2)=  5.13751980E-05
- sigma(2 2)=  3.75618116E-02  sigma(3 1)=  5.12668274E-05
- sigma(3 3)=  4.22947401E-02  sigma(2 1)= -2.74508951E-08

== END DATASET(S) ==============================================================

 -outvars: echo values of variables after computation  --------
            acell      6.0899819756E+00  6.0899819756E+00  9.9216296528E+00 Bohr
              amu      6.97230000E+01  1.40067400E+01
         berryopt11        -1
         berryopt21         4
         berryopt22         4
         berryopt31         4
         berryopt32         4
             ecut      2.93994603E+01 Hartree
           efield11    0.00000000E+00  0.00000000E+00  0.00000000E+00
           efield21    1.00000000E-07  1.00000000E-07  1.00000000E-07
           efield22    2.00000000E-07  2.00000000E-07  2.00000000E-07
           efield31   -1.00000000E-07 -1.00000000E-07 -1.00000000E-07
           efield32   -2.00000000E-07 -2.00000000E-07 -2.00000000E-07
           etotal11   -1.7827913505E+02
           etotal21   -1.7827913479E+02
           etotal22   -1.7827913452E+02
           etotal31   -1.7827913532E+02
           etotal32   -1.7827913558E+02
            fcart11   -2.6865156427E-09 -9.3670946055E-10 -1.5042378325E-05
                       1.8782469379E-09  7.5326315762E-10 -1.5007125627E-05
                      -7.1488462783E-10  2.7305685561E-10  1.5130661720E-05
                       1.5231533327E-09 -8.9610552672E-11  1.4918842231E-05
            fcart21    6.7060142643E-07  6.7031190525E-07 -1.4340890115E-05
                       6.6721034569E-07  6.6840055424E-07 -1.4336049133E-05
                      -6.6795358612E-07 -6.6887282264E-07  1.4338403938E-05
                      -6.6985818601E-07 -6.6983963684E-07  1.4338535310E-05
            fcart22    1.4706974665E-06  1.4709200669E-06 -1.3519588495E-05
                       1.4699623624E-06  1.4707874248E-06 -1.3526981523E-05
                      -1.4703950967E-06 -1.4709376367E-06  1.3521570397E-05
                      -1.4702647322E-06 -1.4707698550E-06  1.3524999621E-05
            fcart31   -6.7180824548E-07 -6.7013770960E-07 -1.5701623944E-05
                      -6.7173551492E-07 -6.6571668970E-07 -1.5700906443E-05
                       6.7177380286E-07  6.6725740325E-07  1.5701288717E-05
                       6.7176995754E-07  6.6859699605E-07  1.5701241671E-05
            fcart32   -1.3342191992E-06 -1.3365177793E-06 -1.6385712322E-05
                      -1.3340673137E-06 -1.3366702839E-06 -1.6385310399E-05
                       1.3340741906E-06  1.3366344635E-06  1.6384924459E-05
                       1.3342123223E-06  1.3365535997E-06  1.6386098262E-05
-          fftalg         112
           getwfk11         0
           getwfk21        11
           getwfk22        21
           getwfk31        11
           getwfk32        31
              ixc     -101130
           jdtset       11   21   22   31   32
              kpt      0.00000000E+00  0.00000000E+00  3.12500000E-02
                       6.25000000E-02  0.00000000E+00  3.12500000E-02
                       1.25000000E-01  0.00000000E+00  3.12500000E-02
                       1.87500000E-01  0.00000000E+00  3.12500000E-02
                       2.50000000E-01  0.00000000E+00  3.12500000E-02
                       3.12500000E-01  0.00000000E+00  3.12500000E-02
                       3.75000000E-01  0.00000000E+00  3.12500000E-02
                       4.37500000E-01  0.00000000E+00  3.12500000E-02
                       5.00000000E-01  0.00000000E+00  3.12500000E-02
                      -4.37500000E-01  0.00000000E+00  3.12500000E-02
                      -3.75000000E-01  0.00000000E+00  3.12500000E-02
                      -3.12500000E-01  0.00000000E+00  3.12500000E-02
                      -2.50000000E-01  0.00000000E+00  3.12500000E-02
                      -1.87500000E-01  0.00000000E+00  3.12500000E-02
                      -1.25000000E-01  0.00000000E+00  3.12500000E-02
                      -6.25000000E-02  0.00000000E+00  3.12500000E-02
                       0.00000000E+00  6.25000000E-02  3.12500000E-02
                       6.25000000E-02  6.25000000E-02  3.12500000E-02
                       1.25000000E-01  6.25000000E-02  3.12500000E-02
                       1.87500000E-01  6.25000000E-02  3.12500000E-02
                       2.50000000E-01  6.25000000E-02  3.12500000E-02
                       3.12500000E-01  6.25000000E-02  3.12500000E-02
                       3.75000000E-01  6.25000000E-02  3.12500000E-02
                       4.37500000E-01  6.25000000E-02  3.12500000E-02
                       5.00000000E-01  6.25000000E-02  3.12500000E-02
                      -4.37500000E-01  6.25000000E-02  3.12500000E-02
                      -3.75000000E-01  6.25000000E-02  3.12500000E-02
                      -3.12500000E-01  6.25000000E-02  3.12500000E-02
                      -2.50000000E-01  6.25000000E-02  3.12500000E-02
                      -1.87500000E-01  6.25000000E-02  3.12500000E-02
                      -1.25000000E-01  6.25000000E-02  3.12500000E-02
                      -6.25000000E-02  6.25000000E-02  3.12500000E-02
                       0.00000000E+00  1.25000000E-01  3.12500000E-02
                       6.25000000E-02  1.25000000E-01  3.12500000E-02
                       1.25000000E-01  1.25000000E-01  3.12500000E-02
                       1.87500000E-01  1.25000000E-01  3.12500000E-02
                       2.50000000E-01  1.25000000E-01  3.12500000E-02
                       3.12500000E-01  1.25000000E-01  3.12500000E-02
                       3.75000000E-01  1.25000000E-01  3.12500000E-02
                       4.37500000E-01  1.25000000E-01  3.12500000E-02
                       5.00000000E-01  1.25000000E-01  3.12500000E-02
                      -4.37500000E-01  1.25000000E-01  3.12500000E-02
                      -3.75000000E-01  1.25000000E-01  3.12500000E-02
                      -3.12500000E-01  1.25000000E-01  3.12500000E-02
                      -2.50000000E-01  1.25000000E-01  3.12500000E-02
                      -1.87500000E-01  1.25000000E-01  3.12500000E-02
                      -1.25000000E-01  1.25000000E-01  3.12500000E-02
                      -6.25000000E-02  1.25000000E-01  3.12500000E-02
                       0.00000000E+00  1.87500000E-01  3.12500000E-02
                       6.25000000E-02  1.87500000E-01  3.12500000E-02
                       outvar_i_n : Printing only first  50 k-points.
           kptopt           2
         kptrlatt       16    0    0      0   16    0      0    0   16
          kptrlen      9.74397116E+01
P           mkmem          16
            natom           4
            nband          18
           ndtset           5
            ngfft          30      30      50
          ngfftdg          30      30      50
             nkpt        2048
            nstep         100
             nsym           1
           ntypat           2
              occ      2.000000  2.000000  2.000000  2.000000  2.000000  2.000000
                       2.000000  2.000000  2.000000  2.000000  2.000000  2.000000
                       2.000000  2.000000  2.000000  2.000000  2.000000  2.000000
        pawecutdg      2.93994603E+01 Hartree
            rfdir11         1       1       1
            rfdir21         0       0       0
            rfdir22         0       0       0
            rfdir31         0       0       0
            rfdir32         0       0       0
            rprim      5.0000000000E-01 -8.6602540378E-01  0.0000000000E+00
                       5.0000000000E-01  8.6602540378E-01  0.0000000000E+00
                       0.0000000000E+00  0.0000000000E+00  1.0000000000E+00
           shiftk      0.00000000E+00  0.00000000E+00  5.00000000E-01
          spgroup           1
           strten11    1.2757518476E-06  1.2757533540E-06  1.4413207094E-06
                       2.2077683506E-12  8.7681387033E-13 -5.1250332739E-12
           strten21    1.2740918271E-06  1.2741000074E-06  1.4421434342E-06
                      -8.6725246239E-10 -8.7943566720E-10 -7.3305217519E-12
           strten22    1.2735044421E-06  1.2735082535E-06  1.4446455066E-06
                      -1.9548054791E-09 -1.9531566210E-09  2.3906756952E-12
           strten31    1.2758644058E-06  1.2758430361E-06  1.4391664885E-06
                       8.7355669521E-10  8.7518062595E-10 -3.3718111575E-13
           strten32    1.2766994860E-06  1.2767002399E-06  1.4375692389E-06
                       1.7462077800E-09  1.7425243377E-09 -9.3303711747E-13
        symmorphi           0
           toldfe      1.00000000E-12 Hartree
            typat      1  1  2  2
           useylm           1
              wtk        0.00049    0.00049    0.00049    0.00049    0.00049    0.00049
                         0.00049    0.00049    0.00049    0.00049    0.00049    0.00049
                         0.00049    0.00049    0.00049    0.00049    0.00049    0.00049
                         0.00049    0.00049    0.00049    0.00049    0.00049    0.00049
                         0.00049    0.00049    0.00049    0.00049    0.00049    0.00049
                         0.00049    0.00049    0.00049    0.00049    0.00049    0.00049
                         0.00049    0.00049    0.00049    0.00049    0.00049    0.00049
                         0.00049    0.00049    0.00049    0.00049    0.00049    0.00049
                         0.00049    0.00049
                       outvars : Printing only first  50 k-points.
           xangst      1.6113398311E+00  9.3030748526E-01  0.0000000000E+00
                       1.6113398311E+00 -9.3030748526E-01  2.6251501422E+00
                       1.6113398311E+00  9.3030748526E-01  1.9779226545E+00
                       1.6113398311E+00 -9.3030748526E-01  4.6030727967E+00
            xcart      3.0449909878E+00  1.7580263665E+00  0.0000000000E+00
                       3.0449909878E+00 -1.7580263665E+00  4.9608148264E+00
                       3.0449909878E+00  1.7580263665E+00  3.7377321291E+00
                       3.0449909878E+00 -1.7580263665E+00  8.6985469555E+00
             xred      3.3333333333E-01  6.6666666667E-01  0.0000000000E+00
                       6.6666666667E-01  3.3333333333E-01  5.0000000000E-01
                       3.3333333333E-01  6.6666666667E-01  3.7672562471E-01
                       6.6666666667E-01  3.3333333333E-01  8.7672562471E-01
            znucl       31.00000    7.00000

- Timing analysis has been suppressed with timopt=0

 Suggested references for the acknowledgment of ABINIT usage.

 Calculation completed.
.Delivered   0 WARNINGs and   8 COMMENTs to log file.