.Version 8.4.3 of ABINIT

 ABINIT is a project of the Universite Catholique de Louvain,
 Corning Inc. and other collaborators, see ~abinit/doc/developers/contributors.txt .
 Please read ~abinit/doc/users/acknowledgments.html for suggested
 acknowledgments of the ABINIT effort.

.Starting date : Mon 11 Sep 2017.
- ( at 16h27 )

- input  file    -> VO2_m.in
- output file    -> VO2_m.out
- root for input  files -> VO2_mi
- root for output files -> VO2_mo

- inpspheads : Reading pseudopotential header in XML form from V.GGA_PBE-JTH.xml
- inpspheads : Reading pseudopotential header in XML form from O.GGA_PBE-JTH.xml

 Symmetries : the unit cell is not primitive
     intxc =       0    ionmov =       0      iscf =      17    lmnmax =      18
     lnmax =       6     mgfft =      72  mpssoang =       3    mqgrid =    3521
     natom =      96  nloc_mem =       2    nspden =       1   nspinor =       1
    nsppol =       1      nsym =      16    n1xccc =       1    ntypat =       2
    occopt =       1   xclevel =       2
-    mband =         412        mffmem =           1         mkmem =          23
       mpw =       14353          nfft =      311040          nkpt =          90
Pmy_natom=        24
 PAW method is used; the additional fine FFT grid is defined by:
   mgfftf=        80    nfftf =    460800
  Rough estimation (10% accuracy) of disk space for files :

------------- Echo of variables that govern the present computation ------------
-
- outvars: echo of selected default values
-   iomode0 =  0 , fftalg0 =112 , wfoptalg0 = 10
-
- outvars: echo of global parameters not present in the input file
-  max_nthreads =    0
-
 -outvars: echo values of preprocessed input variables --------
            acell      2.0270000000E+01  1.7126000000E+01  2.0370000000E+01 Bohr
              amu      5.09415000E+01  1.59994000E+01
           diemac      2.00000000E+00
             ecut      1.30000000E+01 Hartree
-          fftalg         112
           getwfk          -1
              ixc          11
              kpt      8.33333333E-02  5.00000000E-02  8.33333333E-02
                       2.50000000E-01  5.00000000E-02  8.33333333E-02
                       4.16666667E-01  5.00000000E-02  8.33333333E-02
                      -4.16666667E-01  5.00000000E-02  8.33333333E-02
                      -2.50000000E-01  5.00000000E-02  8.33333333E-02
                      -8.33333333E-02  5.00000000E-02  8.33333333E-02
                       8.33333333E-02  1.50000000E-01  8.33333333E-02
                       2.50000000E-01  1.50000000E-01  8.33333333E-02
                       4.16666667E-01  1.50000000E-01  8.33333333E-02
                      -4.16666667E-01  1.50000000E-01  8.33333333E-02
                      -2.50000000E-01  1.50000000E-01  8.33333333E-02
                      -8.33333333E-02  1.50000000E-01  8.33333333E-02
                       8.33333333E-02  2.50000000E-01  8.33333333E-02
                       2.50000000E-01  2.50000000E-01  8.33333333E-02
                       4.16666667E-01  2.50000000E-01  8.33333333E-02
                      -4.16666667E-01  2.50000000E-01  8.33333333E-02
                      -2.50000000E-01  2.50000000E-01  8.33333333E-02
                      -8.33333333E-02  2.50000000E-01  8.33333333E-02
                       8.33333333E-02  3.50000000E-01  8.33333333E-02
                       2.50000000E-01  3.50000000E-01  8.33333333E-02
                       4.16666667E-01  3.50000000E-01  8.33333333E-02
                      -4.16666667E-01  3.50000000E-01  8.33333333E-02
                      -2.50000000E-01  3.50000000E-01  8.33333333E-02
                      -8.33333333E-02  3.50000000E-01  8.33333333E-02
                       8.33333333E-02  4.50000000E-01  8.33333333E-02
                       2.50000000E-01  4.50000000E-01  8.33333333E-02
                       4.16666667E-01  4.50000000E-01  8.33333333E-02
                      -4.16666667E-01  4.50000000E-01  8.33333333E-02
                      -2.50000000E-01  4.50000000E-01  8.33333333E-02
                      -8.33333333E-02  4.50000000E-01  8.33333333E-02
                       8.33333333E-02  5.00000000E-02  2.50000000E-01
                       2.50000000E-01  5.00000000E-02  2.50000000E-01
                       4.16666667E-01  5.00000000E-02  2.50000000E-01
                      -4.16666667E-01  5.00000000E-02  2.50000000E-01
                      -2.50000000E-01  5.00000000E-02  2.50000000E-01
                      -8.33333333E-02  5.00000000E-02  2.50000000E-01
                       8.33333333E-02  1.50000000E-01  2.50000000E-01
                       2.50000000E-01  1.50000000E-01  2.50000000E-01
                       4.16666667E-01  1.50000000E-01  2.50000000E-01
                      -4.16666667E-01  1.50000000E-01  2.50000000E-01
                      -2.50000000E-01  1.50000000E-01  2.50000000E-01
                      -8.33333333E-02  1.50000000E-01  2.50000000E-01
                       8.33333333E-02  2.50000000E-01  2.50000000E-01
                       2.50000000E-01  2.50000000E-01  2.50000000E-01
                       4.16666667E-01  2.50000000E-01  2.50000000E-01
                      -4.16666667E-01  2.50000000E-01  2.50000000E-01
                      -2.50000000E-01  2.50000000E-01  2.50000000E-01
                      -8.33333333E-02  2.50000000E-01  2.50000000E-01
                       8.33333333E-02  3.50000000E-01  2.50000000E-01
                       2.50000000E-01  3.50000000E-01  2.50000000E-01
                       outvar_i_n : Printing only first  50 k-points.
         kptrlatt        6    0    0      0   10    0      0    0    6
          kptrlen      1.21620000E+02
P           mkmem          23
            natom          96
            nband         412
            ngfft          72      60      72
          ngfftdg          80      72      80
             nkpt          90
            nstep         300
             nsym          16
           ntypat           2
              occ      2.000000  2.000000  2.000000  2.000000  2.000000  2.000000
                       2.000000  2.000000  2.000000  2.000000  2.000000  2.000000
                       2.000000  2.000000  2.000000  2.000000  2.000000  2.000000
                       2.000000  2.000000  2.000000  2.000000  2.000000  2.000000
                       2.000000  2.000000  2.000000  2.000000  2.000000  2.000000
                       2.000000  2.000000  2.000000  2.000000  2.000000  2.000000
                       2.000000  2.000000  2.000000  2.000000  2.000000  2.000000
                       2.000000  2.000000  2.000000  2.000000  2.000000  2.000000
                       2.000000  2.000000  2.000000  2.000000  2.000000  2.000000
                       2.000000  2.000000  2.000000  2.000000  2.000000  2.000000
                       2.000000  2.000000  2.000000  2.000000  2.000000  2.000000
                       2.000000  2.000000  2.000000  2.000000  2.000000  2.000000
                       2.000000  2.000000  2.000000  2.000000  2.000000  2.000000
                       2.000000  2.000000  2.000000  2.000000  2.000000  2.000000
                       2.000000  2.000000  2.000000  2.000000  2.000000  2.000000
                       2.000000  2.000000  2.000000  2.000000  2.000000  2.000000
                       2.000000  2.000000  2.000000  2.000000  2.000000  2.000000
                       2.000000  2.000000  2.000000  2.000000  2.000000  2.000000
                       2.000000  2.000000  2.000000  2.000000  2.000000  2.000000
                       2.000000  2.000000  2.000000  2.000000  2.000000  2.000000
                       2.000000  2.000000  2.000000  2.000000  2.000000  2.000000
                       2.000000  2.000000  2.000000  2.000000  2.000000  2.000000
                       2.000000  2.000000  2.000000  2.000000  2.000000  2.000000
                       2.000000  2.000000  2.000000  2.000000  2.000000  2.000000
                       2.000000  2.000000  2.000000  2.000000  2.000000  2.000000
                       2.000000  2.000000  2.000000  2.000000  2.000000  2.000000
                       2.000000  2.000000  2.000000  2.000000  2.000000  2.000000
                       2.000000  2.000000  2.000000  2.000000  2.000000  2.000000
                       2.000000  2.000000  2.000000  2.000000  2.000000  2.000000
                       2.000000  2.000000  2.000000  2.000000  2.000000  2.000000
                       2.000000  2.000000  2.000000  2.000000  2.000000  2.000000
                       2.000000  2.000000  2.000000  2.000000  2.000000  2.000000
                       2.000000  2.000000  2.000000  2.000000  2.000000  2.000000
                       2.000000  2.000000  2.000000  2.000000  2.000000  2.000000
                       2.000000  2.000000  2.000000  2.000000  2.000000  2.000000
                       2.000000  2.000000  2.000000  2.000000  2.000000  2.000000
                       2.000000  2.000000  2.000000  2.000000  2.000000  2.000000
                       2.000000  2.000000  2.000000  2.000000  2.000000  2.000000
                       2.000000  2.000000  2.000000  2.000000  2.000000  2.000000
                       2.000000  2.000000  2.000000  2.000000  2.000000  2.000000
                       2.000000  2.000000  2.000000  2.000000  2.000000  2.000000
                       2.000000  2.000000  2.000000  2.000000  2.000000  2.000000
                       2.000000  2.000000  2.000000  2.000000  2.000000  2.000000
                       2.000000  2.000000  2.000000  2.000000  2.000000  2.000000
                       2.000000  2.000000  2.000000  2.000000  2.000000  2.000000
                       2.000000  2.000000  2.000000  2.000000  2.000000  2.000000
                       2.000000  2.000000  2.000000  2.000000  2.000000  2.000000
                       2.000000  2.000000  2.000000  2.000000  2.000000  2.000000
                       2.000000  2.000000  2.000000  2.000000  2.000000  2.000000
                       2.000000  2.000000  2.000000  2.000000  2.000000  2.000000
                       2.000000  2.000000  2.000000  2.000000  2.000000  2.000000
                       2.000000  2.000000  2.000000  2.000000  2.000000  2.000000
                       2.000000  2.000000  2.000000  2.000000  2.000000  2.000000
                       2.000000  2.000000  2.000000  2.000000  2.000000  2.000000
                       2.000000  2.000000  2.000000  2.000000  2.000000  2.000000
                       2.000000  2.000000  2.000000  2.000000  2.000000  2.000000
                       2.000000  2.000000  2.000000  2.000000  2.000000  2.000000
                       2.000000  2.000000  2.000000  2.000000  2.000000  2.000000
                       2.000000  2.000000  2.000000  2.000000  2.000000  2.000000
                       2.000000  2.000000  2.000000  2.000000  2.000000  2.000000
                       2.000000  2.000000  2.000000  2.000000  2.000000  2.000000
                       2.000000  2.000000  2.000000  2.000000  2.000000  2.000000
                       2.000000  2.000000  2.000000  2.000000  2.000000  2.000000
[...]
                       1.9756297790E-02  8.9734213889E+00  8.3465047427E+00
                       7.6777771257E+00  4.4420769517E+00  3.4697856409E+00
                       5.3829673069E+00  4.4420769517E+00  8.3465047427E+00
                       7.6777771257E+00  8.9734213889E+00  3.4697856409E+00
                       5.3829673069E+00  8.9734213889E+00  8.3465047427E+00
                       3.4619710260E+00  2.3549397040E+00  1.0314260900E+00
                       1.1671612072E+00  2.3549397040E+00  5.9081451918E+00
                       3.4619710260E+00  6.8862841411E+00  1.0314260900E+00
                       1.1671612072E+00  6.8862841411E+00  5.9081451918E+00
                       8.8251820351E+00  2.3549397040E+00  1.0314260900E+00
                       6.5303722163E+00  2.3549397040E+00  5.9081451918E+00
                       8.8251820351E+00  6.8862841411E+00  1.0314260900E+00
                       6.5303722163E+00  6.8862841411E+00  5.9081451918E+00
                      -3.9356983573E-01  2.1764047332E+00  3.8452930117E+00
                      -2.6883796545E+00  2.1764047332E+00  8.7220121135E+00
                      -3.9356983573E-01  6.7077491703E+00  3.8452930117E+00
                      -2.6883796545E+00  6.7077491703E+00  8.7220121135E+00
                       4.9696411733E+00  2.1764047332E+00  3.8452930117E+00
                       2.6748313545E+00  2.1764047332E+00  8.7220121135E+00
                       4.9696411733E+00  6.7077491703E+00  3.8452930117E+00
                       2.6748313545E+00  6.7077491703E+00  8.7220121135E+00
                       2.3338142751E+00  8.7908082081E-01  1.9814109711E+00
                       3.9004456338E-02  8.7908082081E-01  6.8581300728E+00
                       2.3338142751E+00  5.4104252580E+00  1.9814109711E+00
                       3.9004456338E-02  5.4104252580E+00  6.8581300728E+00
                       7.6970252842E+00  8.7908082081E-01  1.9814109711E+00
                       5.4022154654E+00  8.7908082081E-01  6.8581300728E+00
                       7.6970252842E+00  5.4104252580E+00  1.9814109711E+00
                       5.4022154654E+00  5.4104252580E+00  6.8581300728E+00
                       7.3481639610E-01  3.6522636163E+00  2.8948204588E+00
                      -1.5599934227E+00  3.6522636163E+00  7.7715395606E+00
                       7.3481639610E-01  8.1836080535E+00  2.8948204588E+00
                      -1.5599934227E+00  8.1836080535E+00  7.7715395606E+00
                       6.0980274052E+00  3.6522636163E+00  2.8948204588E+00
                       3.8032175864E+00  3.6522636163E+00  7.7715395606E+00
                       6.0980274052E+00  8.1836080535E+00  2.8948204588E+00
                       3.8032175864E+00  8.1836080535E+00  7.7715395606E+00
                       1.8819918245E+00  3.1447530394E+00  4.5694857984E-01
                      -4.1281799428E-01  3.1447530394E+00  5.3336676816E+00
                       1.8819918245E+00  7.6760974765E+00  4.5694857984E-01
                      -4.1281799428E-01  7.6760974765E+00  5.3336676816E+00
                       7.2452028336E+00  3.1447530394E+00  4.5694857984E-01
                       4.9503930148E+00  3.1447530394E+00  5.3336676816E+00
                       7.2452028336E+00  7.6760974765E+00  4.5694857984E-01
                       4.9503930148E+00  7.6760974765E+00  5.3336676816E+00
                       1.1861798848E+00  1.3865913978E+00  4.4202581938E+00
                      -1.1086299340E+00  1.3865913978E+00  9.2969772956E+00
                       1.1861798848E+00  5.9179358349E+00  4.4202581938E+00
                      -1.1086299340E+00  5.9179358349E+00  9.2969772956E+00
                       6.5493908938E+00  1.3865913978E+00  4.4202581938E+00
[...]
                       2.3331849888E+00  3.5784027020E+00  5.3848732322E+00
                       4.6279948076E+00  8.1097471392E+00  5.0815413040E-01
                       2.3331849888E+00  8.1097471392E+00  5.3848732322E+00
                       9.9912058167E+00  3.5784027020E+00  5.0815413040E-01
                       7.6963959979E+00  3.5784027020E+00  5.3848732322E+00
                       9.9912058167E+00  8.1097471392E+00  5.0815413040E-01
                       7.6963959979E+00  8.1097471392E+00  5.3848732322E+00
                      -1.5595936173E+00  9.5294173513E-01  4.3685649714E+00
                      -3.8544034361E+00  9.5294173513E-01  9.2452840731E+00
                      -1.5595936173E+00  5.4842861723E+00  4.3685649714E+00
                      -3.8544034361E+00  5.4842861723E+00  9.2452840731E+00
                       3.8036173917E+00  9.5294173513E-01  4.3685649714E+00
                       1.5088075729E+00  9.5294173513E-01  9.2452840731E+00
                       3.8036173917E+00  5.4842861723E+00  4.3685649714E+00
                       1.5088075729E+00  5.4842861723E+00  9.2452840731E+00
            xcart      1.4245418386E+00  1.6869110000E-01  2.6587189282E+00
                      -2.9120202460E+00  1.6869110000E-01  1.1874382458E+01
                       1.4245418386E+00  8.7316911000E+00  2.6587189282E+00
                      -2.9120202460E+00  8.7316911000E+00  1.1874382458E+01
                       1.1559541839E+01  1.6869110000E-01  2.6587189282E+00
                       7.2229797540E+00  1.6869110000E-01  1.1874382458E+01
                       1.1559541839E+01  8.7316911000E+00  2.6587189282E+00
                       7.2229797540E+00  8.7316911000E+00  1.1874382458E+01
                       4.3738960768E+00  8.3943089000E+00  6.5569446011E+00
                       3.7333992224E-02  8.3943089000E+00  1.5772608131E+01
                       4.3738960768E+00  1.6957308900E+01  6.5569446011E+00
                       3.7333992224E-02  1.6957308900E+01  1.5772608131E+01
                       1.4508896077E+01  8.3943089000E+00  6.5569446011E+00
                       1.0172333992E+01  8.3943089000E+00  1.5772608131E+01
                       1.4508896077E+01  1.6957308900E+01  6.5569446011E+00
                       1.0172333992E+01  1.6957308900E+01  1.5772608131E+01
                       6.5421771191E+00  4.4501911000E+00  1.9491128365E+00
                       2.2056150345E+00  4.4501911000E+00  1.1164776366E+01
                       6.5421771191E+00  1.3013191100E+01  1.9491128365E+00
                       2.2056150345E+00  1.3013191100E+01  1.1164776366E+01
                       1.6677177119E+01  4.4501911000E+00  1.9491128365E+00
                       1.2340615035E+01  4.4501911000E+00  1.1164776366E+01
                       1.6677177119E+01  1.3013191100E+01  1.9491128365E+00
                       1.2340615035E+01  1.3013191100E+01  1.1164776366E+01
                      -7.4373920370E-01  4.1128089000E+00  7.2665506929E+00
                      -5.0803012883E+00  4.1128089000E+00  1.6482214222E+01
                      -7.4373920370E-01  1.2675808900E+01  7.2665506929E+00
                      -5.0803012883E+00  1.2675808900E+01  1.6482214222E+01
                       9.3912607963E+00  4.1128089000E+00  7.2665506929E+00
                       5.0546987117E+00  4.1128089000E+00  1.6482214222E+01
                       9.3912607963E+00  1.2675808900E+01  7.2665506929E+00
                       5.0546987117E+00  1.2675808900E+01  1.6482214222E+01
                       4.4102698250E+00  1.6612220000E+00  3.7443240920E+00
                       7.3707740441E-02  1.6612220000E+00  1.2959987621E+01
                       4.4102698250E+00  1.0224222000E+01  3.7443240920E+00
                       7.3707740441E-02  1.0224222000E+01  1.2959987621E+01
                       1.4545269825E+01  1.6612220000E+00  3.7443240920E+00
                       1.0208707740E+01  1.6612220000E+00  1.2959987621E+01
                       1.4545269825E+01  1.0224222000E+01  3.7443240920E+00
                       1.0208707740E+01  1.0224222000E+01  1.2959987621E+01
                       1.3886017466E+00  6.9017780000E+00  5.4704178710E+00
                      -2.9479603380E+00  6.9017780000E+00  1.4686081400E+01
                       1.3886017466E+00  1.5464778000E+01  5.4704178710E+00
                      -2.9479603380E+00  1.5464778000E+01  1.4686081400E+01
                       1.1523601747E+01  6.9017780000E+00  5.4704178710E+00
                       7.1870396620E+00  6.9017780000E+00  1.4686081400E+01
                       1.1523601747E+01  1.5464778000E+01  5.4704178710E+00
                       7.1870396620E+00  1.5464778000E+01  1.4686081400E+01
                       3.5564491327E+00  5.9427220000E+00  8.6350767270E-01
                      -7.8011295192E-01  5.9427220000E+00  1.0079171202E+01
                       3.5564491327E+00  1.4505722000E+01  8.6350767270E-01
                      -7.8011295192E-01  1.4505722000E+01  1.0079171202E+01
                       1.3691449133E+01  5.9427220000E+00  8.6350767270E-01
                       9.3548870481E+00  5.9427220000E+00  1.0079171202E+01
                       1.3691449133E+01  1.4505722000E+01  8.6350767270E-01
                       9.3548870481E+00  1.4505722000E+01  1.0079171202E+01
                       2.2415551265E+00  2.6202780000E+00  8.3530774230E+00
                      -2.0950069581E+00  2.6202780000E+00  1.7568740952E+01
                       2.2415551265E+00  1.1183278000E+01  8.3530774230E+00
                      -2.0950069581E+00  1.1183278000E+01  1.7568740952E+01
                       1.2376555127E+01  2.6202780000E+00  8.3530774230E+00
[...]
                       4.4090806462E+00  6.7622011000E+00  1.0175935669E+01
                       8.7456427308E+00  1.5325201100E+01  9.6027213976E-01
                       4.4090806462E+00  1.5325201100E+01  1.0175935669E+01
                       1.8880642731E+01  6.7622011000E+00  9.6027213976E-01
                       1.4544080646E+01  6.7622011000E+00  1.0175935669E+01
                       1.8880642731E+01  1.5325201100E+01  9.6027213976E-01
                       1.4544080646E+01  1.5325201100E+01  1.0175935669E+01
                      -2.9472048154E+00  1.8007989000E+00  8.2553913896E+00
                      -7.2837669000E+00  1.8007989000E+00  1.7471054919E+01
                      -2.9472048154E+00  1.0363798900E+01  8.2553913896E+00
                      -7.2837669000E+00  1.0363798900E+01  1.7471054919E+01
                       7.1877951846E+00  1.8007989000E+00  8.2553913896E+00
                       2.8512331000E+00  1.8007989000E+00  1.7471054919E+01
                       7.1877951846E+00  1.0363798900E+01  8.2553913896E+00
                       2.8512331000E+00  1.0363798900E+01  1.7471054919E+01
             xred      1.3200000000E-01  9.8500000000E-03  1.4425000000E-01
                       1.3200000000E-01  9.8500000000E-03  6.4425000000E-01
                       1.3200000000E-01  5.0985000000E-01  1.4425000000E-01
                       1.3200000000E-01  5.0985000000E-01  6.4425000000E-01
                       6.3200000000E-01  9.8500000000E-03  1.4425000000E-01
                       6.3200000000E-01  9.8500000000E-03  6.4425000000E-01
                       6.3200000000E-01  5.0985000000E-01  1.4425000000E-01
                       6.3200000000E-01  5.0985000000E-01  6.4425000000E-01
                       3.6800000000E-01  4.9015000000E-01  3.5575000000E-01
                       3.6800000000E-01  4.9015000000E-01  8.5575000000E-01
                       3.6800000000E-01  9.9015000000E-01  3.5575000000E-01
                       3.6800000000E-01  9.9015000000E-01  8.5575000000E-01
                       8.6800000000E-01  4.9015000000E-01  3.5575000000E-01
                       8.6800000000E-01  4.9015000000E-01  8.5575000000E-01
                       8.6800000000E-01  9.9015000000E-01  3.5575000000E-01
                       8.6800000000E-01  9.9015000000E-01  8.5575000000E-01
                       3.6800000000E-01  2.5985000000E-01  1.0575000000E-01
                       3.6800000000E-01  2.5985000000E-01  6.0575000000E-01
                       3.6800000000E-01  7.5985000000E-01  1.0575000000E-01
                       3.6800000000E-01  7.5985000000E-01  6.0575000000E-01
                       8.6800000000E-01  2.5985000000E-01  1.0575000000E-01
                       8.6800000000E-01  2.5985000000E-01  6.0575000000E-01
                       8.6800000000E-01  7.5985000000E-01  1.0575000000E-01
                       8.6800000000E-01  7.5985000000E-01  6.0575000000E-01
                       1.3200000000E-01  2.4015000000E-01  3.9425000000E-01
                       1.3200000000E-01  2.4015000000E-01  8.9425000000E-01
                       1.3200000000E-01  7.4015000000E-01  3.9425000000E-01
                       1.3200000000E-01  7.4015000000E-01  8.9425000000E-01
                       6.3200000000E-01  2.4015000000E-01  3.9425000000E-01
                       6.3200000000E-01  2.4015000000E-01  8.9425000000E-01
                       6.3200000000E-01  7.4015000000E-01  3.9425000000E-01
                       6.3200000000E-01  7.4015000000E-01  8.9425000000E-01
                       3.0450000000E-01  9.7000000000E-02  2.0315000000E-01
                       3.0450000000E-01  9.7000000000E-02  7.0315000000E-01
                       3.0450000000E-01  5.9700000000E-01  2.0315000000E-01
                       3.0450000000E-01  5.9700000000E-01  7.0315000000E-01
                       8.0450000000E-01  9.7000000000E-02  2.0315000000E-01
                       8.0450000000E-01  9.7000000000E-02  7.0315000000E-01
                       8.0450000000E-01  5.9700000000E-01  2.0315000000E-01
                       8.0450000000E-01  5.9700000000E-01  7.0315000000E-01
                       1.9550000000E-01  4.0300000000E-01  2.9680000000E-01
                       1.9550000000E-01  4.0300000000E-01  7.9680000000E-01
                       1.9550000000E-01  9.0300000000E-01  2.9680000000E-01
                       1.9550000000E-01  9.0300000000E-01  7.9680000000E-01
                       6.9550000000E-01  4.0300000000E-01  2.9680000000E-01
                       6.9550000000E-01  4.0300000000E-01  7.9680000000E-01
                       6.9550000000E-01  9.0300000000E-01  2.9680000000E-01
                       6.9550000000E-01  9.0300000000E-01  7.9680000000E-01
                       1.9550000000E-01  3.4700000000E-01  4.6850000000E-02
                       1.9550000000E-01  3.4700000000E-01  5.4685000000E-01
                       1.9550000000E-01  8.4700000000E-01  4.6850000000E-02
                       1.9550000000E-01  8.4700000000E-01  5.4685000000E-01
                       6.9550000000E-01  3.4700000000E-01  4.6850000000E-02
                       6.9550000000E-01  3.4700000000E-01  5.4685000000E-01
                       6.9550000000E-01  8.4700000000E-01  4.6850000000E-02
                       6.9550000000E-01  8.4700000000E-01  5.4685000000E-01
                       3.0450000000E-01  1.5300000000E-01  4.5320000000E-01
                       3.0450000000E-01  1.5300000000E-01  9.5320000000E-01
                       3.0450000000E-01  6.5300000000E-01  4.5320000000E-01
                       3.0450000000E-01  6.5300000000E-01  9.5320000000E-01
                       8.0450000000E-01  1.5300000000E-01  4.5320000000E-01
[...]
                       4.5375000000E-01  3.9485000000E-01  5.5210000000E-01
                       4.5375000000E-01  8.9485000000E-01  5.2100000000E-02
                       4.5375000000E-01  8.9485000000E-01  5.5210000000E-01
                       9.5375000000E-01  3.9485000000E-01  5.2100000000E-02
                       9.5375000000E-01  3.9485000000E-01  5.5210000000E-01
                       9.5375000000E-01  8.9485000000E-01  5.2100000000E-02
                       9.5375000000E-01  8.9485000000E-01  5.5210000000E-01
                       4.6250000000E-02  1.0515000000E-01  4.4790000000E-01
                       4.6250000000E-02  1.0515000000E-01  9.4790000000E-01
                       4.6250000000E-02  6.0515000000E-01  4.4790000000E-01
                       4.6250000000E-02  6.0515000000E-01  9.4790000000E-01
                       5.4625000000E-01  1.0515000000E-01  4.4790000000E-01
                       5.4625000000E-01  1.0515000000E-01  9.4790000000E-01
                       5.4625000000E-01  6.0515000000E-01  4.4790000000E-01
                       5.4625000000E-01  6.0515000000E-01  9.4790000000E-01
            znucl       23.00000    8.00000

- Timing analysis has been suppressed with timopt=0

 Suggested references for the acknowledgment of ABINIT usage.

 Calculation completed.
.Delivered   1 WARNINGs and   0 COMMENTs to log file.