.Version 5.8.4  of ABINIT
.(sequential version, prepared for a i686_linux_gnu4.4 computer)

 ABINIT is a project of the Universite Catholique de Louvain,
 Corning Inc. and other collaborators, see ~abinit/doc/developers/contributors.txt .
 Please read ~abinit/doc/users/acknowledgments.html for suggested
 acknowledgments of the ABINIT effort.

.Starting date : Wed 24 Feb 2010.

- input  file    -> t11.in
- output file    -> t11.out
- root for input  files -> t11i
- root for output files -> t11o

 DATASET    1 : space group Fm -3 m (#225); Bravais cF (face-center cubic)
   intxc =         0  ionmov =         0    iscf =         5 xclevel =         1
  lmnmax =         4   lnmax =         4   mband =        12  mffmem =         1
P  mgfft =        32   mkmem =        28 mpssoang=         4     mpw =      1521
  mqgrid =      3001   natom =         2    nfft =     32768    nkpt =        28
  nloalg =         4  nspden =         1 nspinor =         1  nsppol =         1
    nsym =        48  n1xccc =         0  ntypat =         2  occopt =         1
  Rough estimation (10% accuracy) of disk space for files :

 DATASET    2 : space group Fm -3 m (#225); Bravais cF (face-center cubic)
   intxc =         0  ionmov =         0    iscf =        -2 xclevel =         1
  lmnmax =         4   lnmax =         4   mband =        12  mffmem =         1
P  mgfft =        32   mkmem =        77 mpssoang=         4     mpw =      1540
  mqgrid =      3001   natom =         2    nfft =     32768    nkpt =        77
  nloalg =         4  nspden =         1 nspinor =         1  nsppol =         1
    nsym =        48  n1xccc =         0  ntypat =         2  occopt =         1
  Rough estimation (10% accuracy) of disk space for files :

 -outvars: echo values of preprocessed input variables --------
     acell    7.9376741052E+00  7.9376741052E+00  7.9376741052E+00 Bohr
       amu    5.09415000E+01  1.40067400E+01
    diemac    1.20000000E+01
      ecut    4.00000000E+01 Hartree
    getden1        0
    getden2       -1
      iscf1        5
      iscf2       -2
    istwfk2     2    0    0    0    0    0    0    0    0    0
                0    0    0    0    0    5    0    0    0    0
                0    0    0    0    0    0    0    0    0    0
                0    0    0    0    9    0    0    0    0    0
                0    0    0    0    0    0    0    0    0    2
                outvar1 : prtvol=0, do not print more k-points.
    jdtset      1    2
       kpt1  -8.33333333E-02 -1.66666667E-01  0.00000000E+00
             -8.33333333E-02 -3.33333333E-01  0.00000000E+00
             -1.66666667E-01 -2.50000000E-01  0.00000000E+00
             -8.33333333E-02 -2.50000000E-01  8.33333333E-02
             -8.33333333E-02  5.00000000E-01  0.00000000E+00
             -1.66666667E-01 -4.16666667E-01  0.00000000E+00
             -8.33333333E-02 -4.16666667E-01  8.33333333E-02
             -2.50000000E-01 -3.33333333E-01  0.00000000E+00
             -1.66666667E-01 -3.33333333E-01  8.33333333E-02
             -8.33333333E-02 -3.33333333E-01  1.66666667E-01
             -8.33333333E-02  3.33333333E-01  0.00000000E+00
             -1.66666667E-01  4.16666667E-01  0.00000000E+00
             -2.50000000E-01  5.00000000E-01  0.00000000E+00
             -1.66666667E-01  5.00000000E-01  8.33333333E-02
             -3.33333333E-01 -4.16666667E-01  0.00000000E+00
             -2.50000000E-01 -4.16666667E-01  8.33333333E-02
             -1.66666667E-01 -4.16666667E-01  1.66666667E-01
             -8.33333333E-02 -4.16666667E-01  2.50000000E-01
             -8.33333333E-02  1.66666667E-01  0.00000000E+00
             -1.66666667E-01  2.50000000E-01  0.00000000E+00
             -2.50000000E-01  3.33333333E-01  0.00000000E+00
             -3.33333333E-01  4.16666667E-01  0.00000000E+00
             -4.16666667E-01  5.00000000E-01  0.00000000E+00
             -3.33333333E-01  5.00000000E-01  8.33333333E-02
             -2.50000000E-01  5.00000000E-01  1.66666667E-01
             -8.33333333E-02  0.00000000E+00  0.00000000E+00
             -2.50000000E-01  0.00000000E+00  0.00000000E+00
             -4.16666667E-01  0.00000000E+00  0.00000000E+00
       kpt2   0.00000000E+00  0.00000000E+00  0.00000000E+00
              3.33333333E-02  0.00000000E+00  3.33333333E-02
              6.66666667E-02  0.00000000E+00  6.66666667E-02
              1.00000000E-01  0.00000000E+00  1.00000000E-01
              1.33333333E-01  0.00000000E+00  1.33333333E-01
              1.66666667E-01  0.00000000E+00  1.66666667E-01
              2.00000000E-01  0.00000000E+00  2.00000000E-01
              2.33333333E-01  0.00000000E+00  2.33333333E-01
              2.66666667E-01  0.00000000E+00  2.66666667E-01
              3.00000000E-01  0.00000000E+00  3.00000000E-01
              3.33333333E-01  0.00000000E+00  3.33333333E-01
              3.66666667E-01  0.00000000E+00  3.66666667E-01
              4.00000000E-01  0.00000000E+00  4.00000000E-01
              4.33333333E-01  0.00000000E+00  4.33333333E-01
              4.66666667E-01  0.00000000E+00  4.66666667E-01
              5.00000000E-01  0.00000000E+00  5.00000000E-01
              5.00000000E-01  3.57142857E-02  5.35714286E-01
              5.00000000E-01  7.14285714E-02  5.71428571E-01
              5.00000000E-01  1.07142857E-01  6.07142857E-01
              5.00000000E-01  1.42857143E-01  6.42857143E-01
              5.00000000E-01  1.78571429E-01  6.78571429E-01
              5.00000000E-01  2.14285714E-01  7.14285714E-01
              5.00000000E-01  2.50000000E-01  7.50000000E-01
              5.00000000E-01  2.70833333E-01  7.29166667E-01
              5.00000000E-01  2.91666667E-01  7.08333333E-01
              5.00000000E-01  3.12500000E-01  6.87500000E-01
              5.00000000E-01  3.33333333E-01  6.66666667E-01
              5.00000000E-01  3.54166667E-01  6.45833333E-01
              5.00000000E-01  3.75000000E-01  6.25000000E-01
              5.00000000E-01  3.95833333E-01  6.04166667E-01
              5.00000000E-01  4.16666667E-01  5.83333333E-01
              5.00000000E-01  4.37500000E-01  5.62500000E-01
              5.00000000E-01  4.58333333E-01  5.41666667E-01
              5.00000000E-01  4.79166667E-01  5.20833333E-01
              5.00000000E-01  5.00000000E-01  5.00000000E-01
              4.66666667E-01  4.66666667E-01  4.66666667E-01
              4.33333333E-01  4.33333333E-01  4.33333333E-01
              4.00000000E-01  4.00000000E-01  4.00000000E-01
              3.66666667E-01  3.66666667E-01  3.66666667E-01
              3.33333333E-01  3.33333333E-01  3.33333333E-01
              3.00000000E-01  3.00000000E-01  3.00000000E-01
              2.66666667E-01  2.66666667E-01  2.66666667E-01
              2.33333333E-01  2.33333333E-01  2.33333333E-01
              2.00000000E-01  2.00000000E-01  2.00000000E-01
              1.66666667E-01  1.66666667E-01  1.66666667E-01
              1.33333333E-01  1.33333333E-01  1.33333333E-01
              1.00000000E-01  1.00000000E-01  1.00000000E-01
              6.66666667E-02  6.66666667E-02  6.66666667E-02
              3.33333333E-02  3.33333333E-02  3.33333333E-02
              0.00000000E+00  0.00000000E+00  0.00000000E+00
                outvar1 : prtvol=0, do not print more k-points.
   kptrlen1   4.76260446E+01
   kptrlen2   3.00000000E+01
    kptopt1        1
    kptopt2       -6
  kptrlatt    6 -6  6  -6  6  6  -6 -6  6
P    mkmem1       28
P    mkmem2       77
     natom         2
     nband1    12
     nband2    12
    nbdbuf1        0
    nbdbuf2        2
    ndtset         2
     ngfft        32      32      32
      nkpt1       28
      nkpt2       77
     nstep       100
      nsym        48
    ntypat         2
       occ    2.000000  2.000000  2.000000  2.000000  2.000000  0.000000
              0.000000  0.000000  0.000000  0.000000  0.000000  0.000000
     rprim    0.0000000000E+00  5.0000000000E-01  5.0000000000E-01
              5.0000000000E-01  0.0000000000E+00  5.0000000000E-01
              5.0000000000E-01  5.0000000000E-01  0.0000000000E+00
    shiftk    5.00000000E-01  5.00000000E-01  5.00000000E-01
   spgroup       225
    symrel    1  0  0   0  1  0   0  0  1      -1  0  0   0 -1  0   0  0 -1
              0 -1  1   0 -1  0   1 -1  0       0  1 -1   0  1  0  -1  1  0
             -1  0  0  -1  0  1  -1  1  0       1  0  0   1  0 -1   1 -1  0
              0  1 -1   1  0 -1   0  0 -1       0 -1  1  -1  0  1   0  0  1
             -1  0  0  -1  1  0  -1  0  1       1  0  0   1 -1  0   1  0 -1
              0 -1  1   1 -1  0   0 -1  0       0  1 -1  -1  1  0   0  1  0
              1  0  0   0  0  1   0  1  0      -1  0  0   0  0 -1   0 -1  0
              0  1 -1   0  0 -1   1  0 -1       0 -1  1   0  0  1  -1  0  1
             -1  0  1  -1  1  0  -1  0  0       1  0 -1   1 -1  0   1  0  0
              0 -1  0   1 -1  0   0 -1  1       0  1  0  -1  1  0   0  1 -1
              1  0 -1   0  0 -1   0  1 -1      -1  0  1   0  0  1   0 -1  1
              0  1  0   0  0  1   1  0  0       0 -1  0   0  0 -1  -1  0  0
              1  0 -1   0  1 -1   0  0 -1      -1  0  1   0 -1  1   0  0  1
              0 -1  0   0 -1  1   1 -1  0       0  1  0   0  1 -1  -1  1  0
             -1  0  1  -1  0  0  -1  1  0       1  0 -1   1  0  0   1 -1  0
              0  1  0   1  0  0   0  0  1       0 -1  0  -1  0  0   0  0 -1
              0  0 -1   0  1 -1   1  0 -1       0  0  1   0 -1  1  -1  0  1
              1 -1  0   0 -1  1   0 -1  0      -1  1  0   0  1 -1   0  1  0
              0  0  1   1  0  0   0  1  0       0  0 -1  -1  0  0   0 -1  0
             -1  1  0  -1  0  0  -1  0  1       1 -1  0   1  0  0   1  0 -1
              0  0  1   0  1  0   1  0  0       0  0 -1   0 -1  0  -1  0  0
              1 -1  0   0 -1  0   0 -1  1      -1  1  0   0  1  0   0  1 -1
              0  0 -1   1  0 -1   0  1 -1       0  0  1  -1  0  1   0 -1  1
             -1  1  0  -1  0  1  -1  0  0       1 -1  0   1  0 -1   1  0  0
    toldfe1   1.00000000E-08 Hartree
    toldfe2   0.00000000E+00 Hartree
    tolwfr1   0.00000000E+00
    tolwfr2   1.00000000E-12
     typat    1  2
       wtk1     0.02778    0.02778    0.02778    0.05556    0.02778    0.02778
                0.05556    0.02778    0.05556    0.05556    0.02778    0.02778
                0.02778    0.05556    0.02778    0.05556    0.05556    0.05556
                0.02778    0.02778    0.02778    0.02778    0.02778    0.05556
                0.05556    0.00926    0.00926    0.00926
       wtk2     1.00000    1.00000    1.00000    1.00000    1.00000    1.00000
                1.00000    1.00000    1.00000    1.00000    1.00000    1.00000
                1.00000    1.00000    1.00000    1.00000    1.00000    1.00000
                1.00000    1.00000    1.00000    1.00000    1.00000    1.00000
                1.00000    1.00000    1.00000    1.00000    1.00000    1.00000
                1.00000    1.00000    1.00000    1.00000    1.00000    1.00000
                1.00000    1.00000    1.00000    1.00000    1.00000    1.00000
                1.00000    1.00000    1.00000    1.00000    1.00000    1.00000
                1.00000    1.00000
[...]
 kpt#  61, nband= 12, wtk=  1.00000, kpt=  0.3667  0.3667  0.7333 (reduced coord)
  -0.57077  -0.24752  -0.24385  -0.18375  -0.03936   0.02634   0.04383   0.09798
   0.11406   0.38159   0.42352   0.45470
 kpt#  62, nband= 12, wtk=  1.00000, kpt=  0.4000  0.4000  0.8000 (reduced coord)
  -0.57275  -0.25348  -0.21959  -0.17201  -0.06423   0.03299   0.04361   0.08112
   0.10115   0.36116   0.42419   0.49705
 kpt#  63, nband= 12, wtk=  1.00000, kpt=  0.4333  0.4333  0.8667 (reduced coord)
  -0.57522  -0.25766  -0.19254  -0.15937  -0.08840   0.03787   0.04285   0.05187
   0.10212   0.34067   0.42583   0.54302
 kpt#  64, nband= 12, wtk=  1.00000, kpt=  0.4667  0.4667  0.9333 (reduced coord)
  -0.57713  -0.26013  -0.16529  -0.14883  -0.11209   0.03083   0.04086   0.04214
   0.10174   0.32654   0.42729   0.58538
 kpt#  65, nband= 12, wtk=  1.00000, kpt=  0.5000  0.5000  1.0000 (reduced coord)
  -0.57783  -0.26095  -0.14454  -0.14454  -0.13128   0.02297   0.04186   0.04186
   0.10137   0.32156   0.42785   0.60839
 kpt#  66, nband= 12, wtk=  1.00000, kpt=  0.5000  0.4583  0.9583 (reduced coord)
  -0.57728  -0.26031  -0.16030  -0.15064  -0.11390   0.02892   0.04127   0.04187
   0.10171   0.32552   0.42743   0.59019
 kpt#  67, nband= 12, wtk=  1.00000, kpt=  0.5000  0.4167  0.9167 (reduced coord)
  -0.57575  -0.25835  -0.17930  -0.16547  -0.09021   0.03922   0.04189   0.04301
   0.10264   0.33759   0.42662   0.55757
 kpt#  68, nband= 12, wtk=  1.00000, kpt=  0.5000  0.3750  0.8750 (reduced coord)
  -0.57361  -0.25499  -0.19645  -0.18281  -0.06580   0.03493   0.04191   0.05853
   0.10397   0.35770   0.42668   0.52442
 kpt#  69, nband= 12, wtk=  1.00000, kpt=  0.5000  0.3333  0.8333 (reduced coord)
  -0.57141  -0.25006  -0.21144  -0.19799  -0.04183   0.02742   0.04194   0.07094
   0.10536   0.38396   0.42941   0.49436
 kpt#  70, nband= 12, wtk=  1.00000, kpt=  0.5000  0.2917  0.7917 (reduced coord)
  -0.56975  -0.24340  -0.22422  -0.20814  -0.01947   0.01588   0.04196   0.07850
   0.10642   0.41012   0.43666   0.46911
 kpt#  71, nband= 12, wtk=  1.00000, kpt=  0.5000  0.2500  0.7500 (reduced coord)
  -0.56914  -0.23484  -0.23484  -0.21169   0.00009   0.00009   0.04196   0.08099
   0.10681   0.42247   0.44975   0.44975
 kpt#  72, nband= 12, wtk=  1.00000, kpt=  0.5000  0.2083  0.7083 (reduced coord)
  -0.56975  -0.24340  -0.22422  -0.20814  -0.01947   0.01588   0.04196   0.07850
   0.10642   0.41012   0.43666   0.46911
 kpt#  73, nband= 12, wtk=  1.00000, kpt=  0.5000  0.1667  0.6667 (reduced coord)
  -0.57141  -0.25006  -0.21144  -0.19799  -0.04183   0.02742   0.04194   0.07094
   0.10536   0.38396   0.42941   0.49436
 kpt#  74, nband= 12, wtk=  1.00000, kpt=  0.5000  0.1250  0.6250 (reduced coord)
  -0.57361  -0.25499  -0.19645  -0.18281  -0.06580   0.03493   0.04191   0.05853
   0.10397   0.35770   0.42668   0.52442
 kpt#  75, nband= 12, wtk=  1.00000, kpt=  0.5000  0.0833  0.5833 (reduced coord)
  -0.57575  -0.25835  -0.17930  -0.16547  -0.09021   0.03922   0.04189   0.04301
   0.10264   0.33759   0.42662   0.55757
 kpt#  76, nband= 12, wtk=  1.00000, kpt=  0.5000  0.0417  0.5417 (reduced coord)
  -0.57728  -0.26031  -0.16030  -0.15064  -0.11390   0.02892   0.04127   0.04187
   0.10171   0.32552   0.42743   0.59019
 kpt#  77, nband= 12, wtk=  1.00000, kpt=  0.5000  0.0000  0.5000 (reduced coord)
  -0.57783  -0.26095  -0.14454  -0.14454  -0.13128   0.02297   0.04186   0.04186
   0.10137   0.32156   0.42785   0.60839
 Total charge density [el/Bohr^3]
,     Maximum=    5.2130E-01  at reduced coord.    0.4688    0.5313    0.5938
,Next maximum=    5.2130E-01  at reduced coord.    0.4063    0.5313    0.5938
,     Minimum=    1.5104E-04  at reduced coord.    0.0000    0.0000    0.0000
,Next minimum=    2.8348E-03  at reduced coord.    0.0313    0.0000    0.0000

== END DATASET(S) ==============================================================

 -outvars: echo values of variables after computation  --------
     acell    7.9376741052E+00  7.9376741052E+00  7.9376741052E+00 Bohr
       amu    5.09415000E+01  1.40067400E+01
    diemac    1.20000000E+01
      ecut    4.00000000E+01 Hartree
    etotal1  -1.5974873753E+01
     fcart1  -0.0000000000E+00 -0.0000000000E+00 -0.0000000000E+00
             -0.0000000000E+00 -0.0000000000E+00 -0.0000000000E+00
    getden1        0
    getden2       -1
      iscf1        5
      iscf2       -2
    istwfk2     2    0    0    0    0    0    0    0    0    0
                0    0    0    0    0    5    0    0    0    0
                0    0    0    0    0    0    0    0    0    0
                0    0    0    0    9    0    0    0    0    0
                0    0    0    0    0    0    0    0    0    2
                outvar1 : prtvol=0, do not print more k-points.
    jdtset      1    2
       kpt1  -8.33333333E-02 -1.66666667E-01  0.00000000E+00
             -8.33333333E-02 -3.33333333E-01  0.00000000E+00
             -1.66666667E-01 -2.50000000E-01  0.00000000E+00
             -8.33333333E-02 -2.50000000E-01  8.33333333E-02
             -8.33333333E-02  5.00000000E-01  0.00000000E+00
             -1.66666667E-01 -4.16666667E-01  0.00000000E+00
             -8.33333333E-02 -4.16666667E-01  8.33333333E-02
             -2.50000000E-01 -3.33333333E-01  0.00000000E+00
             -1.66666667E-01 -3.33333333E-01  8.33333333E-02
             -8.33333333E-02 -3.33333333E-01  1.66666667E-01
             -8.33333333E-02  3.33333333E-01  0.00000000E+00
             -1.66666667E-01  4.16666667E-01  0.00000000E+00
             -2.50000000E-01  5.00000000E-01  0.00000000E+00
             -1.66666667E-01  5.00000000E-01  8.33333333E-02
             -3.33333333E-01 -4.16666667E-01  0.00000000E+00
             -2.50000000E-01 -4.16666667E-01  8.33333333E-02
             -1.66666667E-01 -4.16666667E-01  1.66666667E-01
             -8.33333333E-02 -4.16666667E-01  2.50000000E-01
             -8.33333333E-02  1.66666667E-01  0.00000000E+00
             -1.66666667E-01  2.50000000E-01  0.00000000E+00
             -2.50000000E-01  3.33333333E-01  0.00000000E+00
             -3.33333333E-01  4.16666667E-01  0.00000000E+00
             -4.16666667E-01  5.00000000E-01  0.00000000E+00
             -3.33333333E-01  5.00000000E-01  8.33333333E-02
             -2.50000000E-01  5.00000000E-01  1.66666667E-01
             -8.33333333E-02  0.00000000E+00  0.00000000E+00
             -2.50000000E-01  0.00000000E+00  0.00000000E+00
             -4.16666667E-01  0.00000000E+00  0.00000000E+00
       kpt2   0.00000000E+00  0.00000000E+00  0.00000000E+00
              3.33333333E-02  0.00000000E+00  3.33333333E-02
              6.66666667E-02  0.00000000E+00  6.66666667E-02
              1.00000000E-01  0.00000000E+00  1.00000000E-01
              1.33333333E-01  0.00000000E+00  1.33333333E-01
              1.66666667E-01  0.00000000E+00  1.66666667E-01
              2.00000000E-01  0.00000000E+00  2.00000000E-01
              2.33333333E-01  0.00000000E+00  2.33333333E-01
              2.66666667E-01  0.00000000E+00  2.66666667E-01
              3.00000000E-01  0.00000000E+00  3.00000000E-01
              3.33333333E-01  0.00000000E+00  3.33333333E-01
              3.66666667E-01  0.00000000E+00  3.66666667E-01
              4.00000000E-01  0.00000000E+00  4.00000000E-01
              4.33333333E-01  0.00000000E+00  4.33333333E-01
              4.66666667E-01  0.00000000E+00  4.66666667E-01
              5.00000000E-01  0.00000000E+00  5.00000000E-01
              5.00000000E-01  3.57142857E-02  5.35714286E-01
              5.00000000E-01  7.14285714E-02  5.71428571E-01
              5.00000000E-01  1.07142857E-01  6.07142857E-01
              5.00000000E-01  1.42857143E-01  6.42857143E-01
              5.00000000E-01  1.78571429E-01  6.78571429E-01
              5.00000000E-01  2.14285714E-01  7.14285714E-01
              5.00000000E-01  2.50000000E-01  7.50000000E-01
              5.00000000E-01  2.70833333E-01  7.29166667E-01
              5.00000000E-01  2.91666667E-01  7.08333333E-01
              5.00000000E-01  3.12500000E-01  6.87500000E-01
              5.00000000E-01  3.33333333E-01  6.66666667E-01
              5.00000000E-01  3.54166667E-01  6.45833333E-01
              5.00000000E-01  3.75000000E-01  6.25000000E-01
              5.00000000E-01  3.95833333E-01  6.04166667E-01
              5.00000000E-01  4.16666667E-01  5.83333333E-01
              5.00000000E-01  4.37500000E-01  5.62500000E-01
              5.00000000E-01  4.58333333E-01  5.41666667E-01
              5.00000000E-01  4.79166667E-01  5.20833333E-01
              5.00000000E-01  5.00000000E-01  5.00000000E-01
              4.66666667E-01  4.66666667E-01  4.66666667E-01
              4.33333333E-01  4.33333333E-01  4.33333333E-01
              4.00000000E-01  4.00000000E-01  4.00000000E-01
              3.66666667E-01  3.66666667E-01  3.66666667E-01
              3.33333333E-01  3.33333333E-01  3.33333333E-01
              3.00000000E-01  3.00000000E-01  3.00000000E-01
              2.66666667E-01  2.66666667E-01  2.66666667E-01
              2.33333333E-01  2.33333333E-01  2.33333333E-01
              2.00000000E-01  2.00000000E-01  2.00000000E-01
              1.66666667E-01  1.66666667E-01  1.66666667E-01
              1.33333333E-01  1.33333333E-01  1.33333333E-01
              1.00000000E-01  1.00000000E-01  1.00000000E-01
              6.66666667E-02  6.66666667E-02  6.66666667E-02
              3.33333333E-02  3.33333333E-02  3.33333333E-02
              0.00000000E+00  0.00000000E+00  0.00000000E+00
                outvar1 : prtvol=0, do not print more k-points.
   kptrlen1   4.76260446E+01
   kptrlen2   3.00000000E+01
    kptopt1        1
    kptopt2       -6
  kptrlatt    6 -6  6  -6  6  6  -6 -6  6
P    mkmem1       28
P    mkmem2       77
     natom         2
     nband1    12
     nband2    12
    nbdbuf1        0
    nbdbuf2        2
    ndtset         2
     ngfft        32      32      32
      nkpt1       28
      nkpt2       77
     nstep       100
      nsym        48
    ntypat         2
       occ    2.000000  2.000000  2.000000  2.000000  2.000000  0.000000
              0.000000  0.000000  0.000000  0.000000  0.000000  0.000000
     rprim    0.0000000000E+00  5.0000000000E-01  5.0000000000E-01
              5.0000000000E-01  0.0000000000E+00  5.0000000000E-01
              5.0000000000E-01  5.0000000000E-01  0.0000000000E+00
    shiftk    5.00000000E-01  5.00000000E-01  5.00000000E-01
   spgroup       225
    strten1  -1.1293758795E-04 -1.1293758795E-04 -1.1293758795E-04
              0.0000000000E+00  0.0000000000E+00  0.0000000000E+00
    symrel    1  0  0   0  1  0   0  0  1      -1  0  0   0 -1  0   0  0 -1
              0 -1  1   0 -1  0   1 -1  0       0  1 -1   0  1  0  -1  1  0
             -1  0  0  -1  0  1  -1  1  0       1  0  0   1  0 -1   1 -1  0
              0  1 -1   1  0 -1   0  0 -1       0 -1  1  -1  0  1   0  0  1
             -1  0  0  -1  1  0  -1  0  1       1  0  0   1 -1  0   1  0 -1
              0 -1  1   1 -1  0   0 -1  0       0  1 -1  -1  1  0   0  1  0
              1  0  0   0  0  1   0  1  0      -1  0  0   0  0 -1   0 -1  0
              0  1 -1   0  0 -1   1  0 -1       0 -1  1   0  0  1  -1  0  1
             -1  0  1  -1  1  0  -1  0  0       1  0 -1   1 -1  0   1  0  0
              0 -1  0   1 -1  0   0 -1  1       0  1  0  -1  1  0   0  1 -1
              1  0 -1   0  0 -1   0  1 -1      -1  0  1   0  0  1   0 -1  1
              0  1  0   0  0  1   1  0  0       0 -1  0   0  0 -1  -1  0  0
              1  0 -1   0  1 -1   0  0 -1      -1  0  1   0 -1  1   0  0  1
              0 -1  0   0 -1  1   1 -1  0       0  1  0   0  1 -1  -1  1  0
             -1  0  1  -1  0  0  -1  1  0       1  0 -1   1  0  0   1 -1  0
              0  1  0   1  0  0   0  0  1       0 -1  0  -1  0  0   0  0 -1
              0  0 -1   0  1 -1   1  0 -1       0  0  1   0 -1  1  -1  0  1
              1 -1  0   0 -1  1   0 -1  0      -1  1  0   0  1 -1   0  1  0
              0  0  1   1  0  0   0  1  0       0  0 -1  -1  0  0   0 -1  0
             -1  1  0  -1  0  0  -1  0  1       1 -1  0   1  0  0   1  0 -1
              0  0  1   0  1  0   1  0  0       0  0 -1   0 -1  0  -1  0  0
              1 -1  0   0 -1  0   0 -1  1      -1  1  0   0  1  0   0  1 -1
              0  0 -1   1  0 -1   0  1 -1       0  0  1  -1  0  1   0 -1  1
             -1  1  0  -1  0  1  -1  0  0       1 -1  0   1  0 -1   1  0  0
    toldfe1   1.00000000E-08 Hartree
    toldfe2   0.00000000E+00 Hartree
    tolwfr1   0.00000000E+00
    tolwfr2   1.00000000E-12
     typat    1  2
       wtk1     0.02778    0.02778    0.02778    0.05556    0.02778    0.02778
                0.05556    0.02778    0.05556    0.05556    0.02778    0.02778
                0.02778    0.05556    0.02778    0.05556    0.05556    0.05556
                0.02778    0.02778    0.02778    0.02778    0.02778    0.05556
                0.05556    0.00926    0.00926    0.00926
       wtk2     1.00000    1.00000    1.00000    1.00000    1.00000    1.00000
                1.00000    1.00000    1.00000    1.00000    1.00000    1.00000
                1.00000    1.00000    1.00000    1.00000    1.00000    1.00000
                1.00000    1.00000    1.00000    1.00000    1.00000    1.00000
                1.00000    1.00000    1.00000    1.00000    1.00000    1.00000
                1.00000    1.00000    1.00000    1.00000    1.00000    1.00000
                1.00000    1.00000    1.00000    1.00000    1.00000    1.00000
                1.00000    1.00000    1.00000    1.00000    1.00000    1.00000
                1.00000    1.00000
                outvar1 : prtvol=0, do not print more k-points.
    xangst    0.0000000000E+00  0.0000000000E+00  0.0000000000E+00
              2.1002181128E+00  2.1002181128E+00  2.1002181128E+00
     xcart    0.0000000000E+00  0.0000000000E+00  0.0000000000E+00
              3.9688370526E+00  3.9688370526E+00  3.9688370526E+00
      xred    0.0000000000E+00  0.0000000000E+00  0.0000000000E+00
              5.0000000000E-01  5.0000000000E-01  5.0000000000E-01
     znucl     23.00000    7.00000

- as well as % of the total time and number of calls

-                                                          (-1=no count)
- fourwf(pot)          223.368  62.4    223.263  62.4          51375
- nonlop(apply)         83.277  23.3     83.301  23.3          51375
- projbd                16.660   4.7     16.448   4.6          79734
- getghc-other           5.621   1.6      5.684   1.6             -1
- vtowfk(ssdiag)         4.763   1.3      4.758   1.3             -1
- fourwf(den)            4.363   1.2      4.339   1.2           1960
- nonlop(forces)         3.873   1.1      3.892   1.1           1960
- 63   others            5.441   1.5      5.441   1.5

- subtotal             347.366  97.1    347.126  97.0

 Suggested references for the acknowledgment of ABINIT usage.

 [1] Ab initio pseudopotentials for electronic structure calculations of poly-atomic systems,
 using density-functional theory.
 M. Fuchs, M. Scheffler, Comput. Phys. Commun. 119, 67 (1999).
 Comment : Some pseudopotential generated using the FHI code were used.

 [2] A brief introduction to the ABINIT software package.
 X. Gonze, G.-M. Rignanese, M. Verstraete, J.-M. Beuken, Y. Pouillon, R. Caracas, F. Jollet,
 M. Torrent, G. Zerah, M. Mikami, Ph. Ghosez, M. Veithen, J.-Y. Raty, V. Olevano, F. Bruneval,
 L. Reining, R. Godby, G. Onida, D.R. Hamann, and D.C. Allan.
 Z. Kristallogr. 220, 558-562 (2005).
 Comment : the second generic paper describing the ABINIT project. Note that this paper
 should be cited, especially if you are using the GW part of ABINIT, as the authors
 of this part are not in the list of authors of the first paper.
 Note that it should not redistributed (Copyright by Oldenburg Wissenshaftverlag,
 the licence allows the authors to put it on the Web).

 [3] First-principles computation of material properties : the ABINIT software project.
 X. Gonze, J.-M. Beuken, R. Caracas, F. Detraux, M. Fuchs, G.-M. Rignanese, L. Sindic,
 M. Verstraete, G. Zerah, F. Jollet, M. Torrent, A. Roy, M. Mikami, Ph. Ghosez, J.-Y. Raty, D.C. Allan.
 Comment : the original paper describing the ABINIT project.

 And optionally :

 [4] Fast radix 2, 3, 4 and 5 kernels for Fast Fourier Transformations
 on computers with overlapping multiply-add instructions.
 S. Goedecker, SIAM J. on Scientific Computing 18, 1605 (1997).

 [5] Iterative minimization techniques for ab initio total-energy calculations:
 molecular dynamics and conjugate gradients.
 M.C. Payne, M.P. Teter, D.C. Allan, T.A. Arias and J.D. Joannopoulos, Rev. Mod. Phys. 64, 1045 (1992).

 Calculation completed.
.Delivered    2 WARNINGs and   0 COMMENTs to log file.