.Version 5.8.4  of ABINIT
.(sequential version, prepared for a i686_linux_gnu4.4 computer)

 ABINIT is a project of the Universite Catholique de Louvain,
 Corning Inc. and other collaborators, see ~abinit/doc/developers/contributors.txt .
 Please read ~abinit/doc/users/acknowledgments.html for suggested
 acknowledgments of the ABINIT effort.

.Starting date : Mon 22 Feb 2010.

- input  file    -> t11.in
- output file    -> t11.out
- root for input  files -> t11i
- root for output files -> t11o

 DATASET    1 : space group Fm -3 m (#225); Bravais cF (face-center cubic)
   intxc =         0  ionmov =         2    iscf =         5 xclevel =         2
  lmnmax =         4   lnmax =         4   mband =        12  mffmem =         1
P  mgfft =        40   mkmem =        28 mpssoang=         4     mpw =      2598
  mqgrid =      3001   natom =         2    nfft =     64000    nkpt =        28
  nloalg =         4  nspden =         1 nspinor =         1  nsppol =         1
    nsym =        48  n1xccc =         0  ntypat =         2  occopt =         1
  Rough estimation (10% accuracy) of disk space for files :

 -outvars: echo values of preprocessed input variables --------
     acell    7.8800000000E+00  7.8800000000E+00  7.8800000000E+00 Bohr
       amu    5.09415000E+01  1.40067400E+01
    diemac    1.20000000E+01
   dilatmx    1.20000000E+00
      ecut    4.00000000E+01 Hartree
    ecutsm    5.00000000E-01 Hartree
    ionmov         2
      iscf         5
       ixc        11
    jdtset      1
       kpt   -8.33333333E-02 -1.66666667E-01  0.00000000E+00
             -8.33333333E-02 -3.33333333E-01  0.00000000E+00
             -1.66666667E-01 -2.50000000E-01  0.00000000E+00
             -8.33333333E-02 -2.50000000E-01  8.33333333E-02
             -8.33333333E-02  5.00000000E-01  0.00000000E+00
             -1.66666667E-01 -4.16666667E-01  0.00000000E+00
             -8.33333333E-02 -4.16666667E-01  8.33333333E-02
             -2.50000000E-01 -3.33333333E-01  0.00000000E+00
             -1.66666667E-01 -3.33333333E-01  8.33333333E-02
             -8.33333333E-02 -3.33333333E-01  1.66666667E-01
             -8.33333333E-02  3.33333333E-01  0.00000000E+00
             -1.66666667E-01  4.16666667E-01  0.00000000E+00
             -2.50000000E-01  5.00000000E-01  0.00000000E+00
             -1.66666667E-01  5.00000000E-01  8.33333333E-02
             -3.33333333E-01 -4.16666667E-01  0.00000000E+00
             -2.50000000E-01 -4.16666667E-01  8.33333333E-02
             -1.66666667E-01 -4.16666667E-01  1.66666667E-01
             -8.33333333E-02 -4.16666667E-01  2.50000000E-01
             -8.33333333E-02  1.66666667E-01  0.00000000E+00
             -1.66666667E-01  2.50000000E-01  0.00000000E+00
             -2.50000000E-01  3.33333333E-01  0.00000000E+00
             -3.33333333E-01  4.16666667E-01  0.00000000E+00
             -4.16666667E-01  5.00000000E-01  0.00000000E+00
             -3.33333333E-01  5.00000000E-01  8.33333333E-02
             -2.50000000E-01  5.00000000E-01  1.66666667E-01
             -8.33333333E-02  0.00000000E+00  0.00000000E+00
             -2.50000000E-01  0.00000000E+00  0.00000000E+00
             -4.16666667E-01  0.00000000E+00  0.00000000E+00
   kptrlen    4.72800000E+01
  kptrlatt    6 -6  6  -6  6  6  -6 -6  6
P    mkmem        28
     natom         2
     nband        12
    ndtset         1
     ngfft        40      40      40
      nkpt        28
     nstep       100
      nsym        48
     ntime       100
    ntypat         2
       occ    2.000000  2.000000  2.000000  2.000000  2.000000  0.000000
              0.000000  0.000000  0.000000  0.000000  0.000000  0.000000
   optcell         2
     rprim    0.0000000000E+00  5.0000000000E-01  5.0000000000E-01
              5.0000000000E-01  0.0000000000E+00  5.0000000000E-01
              5.0000000000E-01  5.0000000000E-01  0.0000000000E+00
    shiftk    5.00000000E-01  5.00000000E-01  5.00000000E-01
   spgroup       225
 strtarget   -3.39892900E-04 -3.39892900E-04 -3.39892900E-04
              0.00000000E+00  0.00000000E+00  0.00000000E+00
    symrel    1  0  0   0  1  0   0  0  1      -1  0  0   0 -1  0   0  0 -1
              0 -1  1   0 -1  0   1 -1  0       0  1 -1   0  1  0  -1  1  0
             -1  0  0  -1  0  1  -1  1  0       1  0  0   1  0 -1   1 -1  0
              0  1 -1   1  0 -1   0  0 -1       0 -1  1  -1  0  1   0  0  1
             -1  0  0  -1  1  0  -1  0  1       1  0  0   1 -1  0   1  0 -1
              0 -1  1   1 -1  0   0 -1  0       0  1 -1  -1  1  0   0  1  0
              1  0  0   0  0  1   0  1  0      -1  0  0   0  0 -1   0 -1  0
              0  1 -1   0  0 -1   1  0 -1       0 -1  1   0  0  1  -1  0  1
             -1  0  1  -1  1  0  -1  0  0       1  0 -1   1 -1  0   1  0  0
              0 -1  0   1 -1  0   0 -1  1       0  1  0  -1  1  0   0  1 -1
              1  0 -1   0  0 -1   0  1 -1      -1  0  1   0  0  1   0 -1  1
              0  1  0   0  0  1   1  0  0       0 -1  0   0  0 -1  -1  0  0
              1  0 -1   0  1 -1   0  0 -1      -1  0  1   0 -1  1   0  0  1
              0 -1  0   0 -1  1   1 -1  0       0  1  0   0  1 -1  -1  1  0
             -1  0  1  -1  0  0  -1  1  0       1  0 -1   1  0  0   1 -1  0
              0  1  0   1  0  0   0  0  1       0 -1  0  -1  0  0   0  0 -1
              0  0 -1   0  1 -1   1  0 -1       0  0  1   0 -1  1  -1  0  1
              1 -1  0   0 -1  1   0 -1  0      -1  1  0   0  1 -1   0  1  0
              0  0  1   1  0  0   0  1  0       0  0 -1  -1  0  0   0 -1  0
             -1  1  0  -1  0  0  -1  0  1       1 -1  0   1  0  0   1  0 -1
              0  0  1   0  1  0   1  0  0       0  0 -1   0 -1  0  -1  0  0
              1 -1  0   0 -1  0   0 -1  1      -1  1  0   0  1  0   0  1 -1
              0  0 -1   1  0 -1   0  1 -1       0  0  1  -1  0  1   0 -1  1
             -1  1  0  -1  0  1  -1  0  0       1 -1  0   1  0 -1   1  0  0
    timopt         2
    tolmxf    1.00000000E-08
    tolvrs    1.00000000E-18
     typat    1  2
       wtk      0.02778    0.02778    0.02778    0.05556    0.02778    0.02778
                0.05556    0.02778    0.05556    0.05556    0.02778    0.02778
                0.02778    0.05556    0.02778    0.05556    0.05556    0.05556
                0.02778    0.02778    0.02778    0.02778    0.02778    0.05556
                0.05556    0.00926    0.00926    0.00926
    xangst    0.0000000000E+00  0.0000000000E+00  0.0000000000E+00
              2.0849582018E+00  2.0849582018E+00  2.0849582018E+00
     xcart    0.0000000000E+00  0.0000000000E+00  0.0000000000E+00
              3.9400000000E+00  3.9400000000E+00  3.9400000000E+00
      xred    0.0000000000E+00  0.0000000000E+00  0.0000000000E+00
              5.0000000000E-01  5.0000000000E-01  5.0000000000E-01
     znucl     23.00000    7.00000

 chkinp: Checking input parameters for consistency, jdtset= 1.

== DATASET  1 ==================================================================

 Real(R)+Recip(G) space primitive vectors, cartesian coordinates (Bohr,Bohr^-1):
 R(1)=  0.0000000  3.9400000  3.9400000  G(1)= -0.1269036  0.1269036  0.1269036
 R(2)=  3.9400000  0.0000000  3.9400000  G(2)=  0.1269036 -0.1269036  0.1269036
 R(3)=  3.9400000  3.9400000  0.0000000  G(3)=  0.1269036  0.1269036 -0.1269036
 Unit cell volume ucvol=  1.2232597E+02 bohr^3
 Angles (23,13,12)=  6.00000000E+01  6.00000000E+01  6.00000000E+01 degrees

 getcut: wavevector=  0.0000  0.0000  0.0000  ngfft=  40  40  40
         ecut(hartree)=     57.600   => boxcut(ratio)=   2.10122

--- Pseudopotential description ------------------------------------------------
- pspini: atom type   1  psp file is ../../../Psps_for_tests/23-V.GGA.fhi
- pspatm: opening atomic psp file    ../../../Psps_for_tests/23-V.GGA.fhi
 vanadium, fhi98PP : Trouiller-Martins-type, GGA Perdew/Burke/Ernzerhof (1996), l= 1 local
  23.00000   5.00000     21003                znucl, zion, pspdat
    6   11    3    1       517   0.00000      pspcod,pspxc,lmax,lloc,mmax,r2well
    0.00000000000000    0.00000000000000    0.00000000000000   rchrg,fchrg,qchrg
  1.024700          amesh (Hamman grid)
 pspatm: epsatm=   59.28995209
         --- l  ekb(1:nproj) -->
             0   -0.939186
             2   -5.620957
             3   -1.146175
 pspatm: atomic psp has been read  and splines computed

- pspini: atom type   2  psp file is ../../../Psps_for_tests/07-N.GGA.fhi
- pspatm: opening atomic psp file    ../../../Psps_for_tests/07-N.GGA.fhi
 nitrogen, fhi98PP : Trouiller-Martins-type, GGA Perdew/Burke/Ernzerhof (1996), l= 2 local
   7.00000   5.00000     21003                znucl, zion, pspdat
    6   11    3    2       467   0.00000      pspcod,pspxc,lmax,lloc,mmax,r2well
    0.00000000000000    0.00000000000000    0.00000000000000   rchrg,fchrg,qchrg
  1.024700          amesh (Hamman grid)
 pspatm: epsatm=    3.15895891
         --- l  ekb(1:nproj) -->
             0    3.289579
             1   -2.246919
             3   -2.603757
 pspatm: atomic psp has been read  and splines computed

   6.24489110E+02                                ecore*ucvol(ha*bohr**3)

P newkpt: treating     12 bands with npw=    2577 for ikpt=   1
P newkpt: treating     12 bands with npw=    2552 for ikpt=   2
P newkpt: treating     12 bands with npw=    2568 for ikpt=   3
P newkpt: treating     12 bands with npw=    2559 for ikpt=   4
P newkpt: treating     12 bands with npw=    2545 for ikpt=   5
P newkpt: treating     12 bands with npw=    2543 for ikpt=   6
P newkpt: treating     12 bands with npw=    2544 for ikpt=   7
P newkpt: treating     12 bands with npw=    2562 for ikpt=   8
P newkpt: treating     12 bands with npw=    2552 for ikpt=   9
P newkpt: treating     12 bands with npw=    2561 for ikpt=  10
P newkpt: treating     12 bands with npw=    2548 for ikpt=  11
P newkpt: treating     12 bands with npw=    2553 for ikpt=  12
P newkpt: treating     12 bands with npw=    2554 for ikpt=  13
P newkpt: treating     12 bands with npw=    2555 for ikpt=  14
P newkpt: treating     12 bands with npw=    2548 for ikpt=  15
P newkpt: treating     12 bands with npw=    2548 for ikpt=  16
P newkpt: treating     12 bands with npw=    2549 for ikpt=  17
P newkpt: treating     12 bands with npw=    2551 for ikpt=  18
P newkpt: treating     12 bands with npw=    2580 for ikpt=  19
P newkpt: treating     12 bands with npw=    2563 for ikpt=  20
P newkpt: treating     12 bands with npw=    2554 for ikpt=  21
P newkpt: treating     12 bands with npw=    2563 for ikpt=  22
P newkpt: treating     12 bands with npw=    2537 for ikpt=  23
P newkpt: treating     12 bands with npw=    2551 for ikpt=  24
P newkpt: treating     12 bands with npw=    2550 for ikpt=  25
P newkpt: treating     12 bands with npw=    2598 for ikpt=  26
P newkpt: treating     12 bands with npw=    2569 for ikpt=  27
P newkpt: treating     12 bands with npw=    2554 for ikpt=  28

 setup2: Arith. and geom. avg. npw (full set) are    2554.463    2554.444

 BROYDEN STEP NUMBER   0  ------------------------------------------------------

     iter   Etot(hartree)      deltaE(h)  residm     vres2    diffor    maxfor
[...]
    1      0.00000000000000     0.00000000000000     0.00000000000000
    2      2.08495820184460     2.08495820184460     2.08495820184460

 cartesian forces (hartree/bohr) at end:
    1     -0.00000000000000    -0.00000000000000    -0.00000000000000
    2     -0.00000000000000    -0.00000000000000    -0.00000000000000
 frms,max,avg= 0.0000000E+00 0.0000000E+00   0.000E+00  0.000E+00  0.000E+00 h/b

 cartesian forces (eV/Angstrom) at end:
    1     -0.00000000000000    -0.00000000000000    -0.00000000000000
    2     -0.00000000000000    -0.00000000000000    -0.00000000000000
 frms,max,avg= 0.0000000E+00 0.0000000E+00   0.000E+00  0.000E+00  0.000E+00 e/A
 length scales=  5.612783186601  5.612783186601  5.612783186601 bohr
              =  2.970156939107  2.970156939107  2.970156939107 angstroms
 prteigrs : about to open file t11o_DS1_EIG
 Fermi (or HOMO) energy (hartree) =   0.00553   Average Vxc (hartree)=  -0.44062
 Eigenvalues (hartree) for nkpt=  28  k points:
 kpt#   1, nband= 12, wtk=  0.02778, kpt= -0.0833 -0.1667  0.0000 (reduced coord)
  -0.64214  -0.16837  -0.13287  -0.12741  -0.06355  -0.02744  -0.01993   0.02176
   0.06716   0.23654   0.51946   0.70860
 kpt#   2, nband= 12, wtk=  0.02778, kpt= -0.0833 -0.3333  0.0000 (reduced coord)
  -0.60484  -0.25365  -0.18761  -0.17626  -0.03265  -0.00233   0.01154   0.11054
   0.14962   0.27750   0.47462   0.59127
 kpt#   3, nband= 12, wtk=  0.02778, kpt= -0.1667 -0.2500  0.0000 (reduced coord)
  -0.62292  -0.21878  -0.15032  -0.14209  -0.07867  -0.00221   0.01042   0.03302
   0.10281   0.29466   0.53239   0.60421
 kpt#   4, nband= 12, wtk=  0.05556, kpt= -0.0833 -0.2500  0.0833 (reduced coord)
  -0.61354  -0.23235  -0.17561  -0.16672  -0.04893  -0.00064   0.01065   0.06045
   0.13890   0.29275   0.49606   0.56418
 kpt#   5, nband= 12, wtk=  0.02778, kpt= -0.0833  0.5000  0.0000 (reduced coord)
  -0.57297  -0.30910  -0.20715  -0.20172   0.00348   0.01231   0.03839   0.17682
   0.18274   0.24136   0.47876   0.51201
 kpt#   6, nband= 12, wtk=  0.02778, kpt= -0.1667 -0.4167  0.0000 (reduced coord)
  -0.58713  -0.27284  -0.20222  -0.18038  -0.04145   0.01496   0.03129   0.11129
   0.15401   0.31176   0.45814   0.52928
 kpt#   7, nband= 12, wtk=  0.05556, kpt= -0.0833 -0.4167  0.0833 (reduced coord)
  -0.57775  -0.29119  -0.20770  -0.19597  -0.01256   0.01253   0.03298   0.13447
   0.17970   0.28227   0.46615   0.50480
 kpt#   8, nband= 12, wtk=  0.02778, kpt= -0.2500 -0.3333  0.0000 (reduced coord)
  -0.60123  -0.24999  -0.16108  -0.14916  -0.09335   0.01493   0.02998   0.04216
   0.12003   0.34357   0.49371   0.55353
 kpt#   9, nband= 12, wtk=  0.05556, kpt= -0.1667 -0.3333  0.0833 (reduced coord)
  -0.59371  -0.25762  -0.18815  -0.17332  -0.05845   0.01728   0.02945   0.06788
   0.14611   0.33676   0.47102   0.51343
 kpt#  10, nband= 12, wtk=  0.05556, kpt= -0.0833 -0.3333  0.1667 (reduced coord)
  -0.58221  -0.27062  -0.20732  -0.19402  -0.02210   0.01665   0.02892   0.08526
   0.17991   0.32566   0.45884   0.47863
 kpt#  11, nband= 12, wtk=  0.02778, kpt= -0.0833  0.3333  0.0000 (reduced coord)
  -0.59088  -0.27924  -0.19535  -0.19302  -0.01080   0.00004   0.02278   0.13164
   0.18161   0.26213   0.47120   0.54189
 kpt#  12, nband= 12, wtk=  0.02778, kpt= -0.1667  0.4167  0.0000 (reduced coord)
  -0.57132  -0.29586  -0.21338  -0.19929   0.00166   0.00702   0.03291   0.13863
   0.18110   0.28598   0.46542   0.48663
 kpt#  13, nband= 12, wtk=  0.02778, kpt= -0.2500  0.5000  0.0000 (reduced coord)
  -0.57468  -0.27040  -0.21425  -0.17993  -0.04696   0.02059   0.03522   0.10991
   0.13409   0.34915   0.43025   0.50165
 kpt#  14, nband= 12, wtk=  0.05556, kpt= -0.1667  0.5000  0.0833 (reduced coord)
  -0.57040  -0.28258  -0.21838  -0.19413  -0.01544   0.01090   0.03397   0.12867
   0.15199   0.32720   0.44755   0.48471
 kpt#  15, nband= 12, wtk=  0.02778, kpt= -0.3333 -0.4167  0.0000 (reduced coord)
  -0.58396  -0.25940  -0.16708  -0.15015  -0.10321   0.02561   0.03467   0.04282
   0.11989   0.35177   0.44290   0.56401
 kpt#  16, nband= 12, wtk=  0.05556, kpt= -0.2500 -0.4167  0.0833 (reduced coord)
  -0.57872  -0.26124  -0.19702  -0.17447  -0.06480   0.02444   0.03432   0.06977
   0.13230   0.36302   0.43353   0.51206
 kpt#  17, nband= 12, wtk=  0.05556, kpt= -0.1667 -0.4167  0.1667 (reduced coord)
  -0.57184  -0.26490  -0.21765  -0.19449  -0.02398   0.01249   0.03334   0.09007
   0.14796   0.37219   0.44020   0.46801
 kpt#  18, nband= 12, wtk=  0.05556, kpt= -0.0833 -0.4167  0.2500 (reduced coord)
  -0.56824  -0.26200  -0.23072  -0.19246  -0.01544   0.00548   0.03362   0.10129
   0.14279   0.38126   0.43837   0.44937
 kpt#  19, nband= 12, wtk=  0.02778, kpt= -0.0833  0.1667  0.0000 (reduced coord)
  -0.63162  -0.19322  -0.15834  -0.15004  -0.04489  -0.02322  -0.01283   0.04803
   0.10380   0.25416   0.50850   0.63872
 kpt#  20, nband= 12, wtk=  0.02778, kpt= -0.1667  0.2500  0.0000 (reduced coord)
  -0.59798  -0.25596  -0.19106  -0.19028  -0.02454   0.00579   0.02051   0.07579
   0.17996   0.29638   0.47043   0.51833
 kpt#  21, nband= 12, wtk=  0.02778, kpt= -0.2500  0.3333  0.0000 (reduced coord)
  -0.57249  -0.27516  -0.22223  -0.19622  -0.00088   0.00456   0.03035   0.09594
   0.18015   0.33848   0.44542   0.46094
 kpt#  22, nband= 12, wtk=  0.02778, kpt= -0.3333  0.4167  0.0000 (reduced coord)
  -0.56929  -0.25248  -0.22896  -0.17803  -0.04914   0.01900   0.03446   0.10789
   0.10935   0.38101   0.42430   0.47332
 kpt#  23, nband= 12, wtk=  0.02778, kpt= -0.4167  0.5000  0.0000 (reduced coord)
  -0.57521  -0.25623  -0.17014  -0.14882  -0.10745   0.02976   0.03253   0.04054
   0.10822   0.34159   0.43101   0.57265
 kpt#  24, nband= 12, wtk=  0.05556, kpt= -0.3333  0.5000  0.0833 (reduced coord)
  -0.57158  -0.25240  -0.20312  -0.17457  -0.06730   0.02459   0.03276   0.07024
   0.11129   0.36924   0.42843   0.51423
 kpt#  25, nband= 12, wtk=  0.05556, kpt= -0.2500  0.5000  0.1667 (reduced coord)
  -0.56775  -0.24563  -0.22608  -0.19793  -0.02432   0.00811   0.03246   0.08916
   0.11684   0.41350   0.43334   0.46455
 kpt#  26, nband= 12, wtk=  0.00926, kpt= -0.0833  0.0000  0.0000 (reduced coord)
  -0.65318  -0.11865  -0.10859  -0.10859  -0.05419  -0.05419  -0.04463   0.01547
   0.01547   0.20288   0.50832   0.78842
 kpt#  27, nband= 12, wtk=  0.00926, kpt= -0.2500  0.0000  0.0000 (reduced coord)
  -0.62165  -0.22081  -0.16734  -0.16734  -0.02617  -0.02617  -0.01086   0.10691
   0.10691   0.25939   0.48716   0.66423
 kpt#  28, nband= 12, wtk=  0.00926, kpt= -0.4167  0.0000  0.0000 (reduced coord)
  -0.58051  -0.30236  -0.20040  -0.20040   0.00553   0.00553   0.03037   0.18320
   0.18320   0.22613   0.48049   0.53551
 Total charge density [el/Bohr^3]
,     Maximum=    5.2701E-01  at reduced coord.    0.4500    0.5250    0.6000
,Next maximum=    5.2701E-01  at reduced coord.    0.4250    0.5250    0.6000
,     Minimum=    1.4082E-04  at reduced coord.    0.0000    0.0000    0.0000
,Next minimum=    1.3018E-03  at reduced coord.    0.0250    0.0000    0.0000

 Components of total free energy (in Hartree) :

    Kinetic energy  =  1.63568590293005E+01
    Hartree energy  =  1.94137024671977E+00
    XC energy       = -4.36713908731404E+00
    Ewald energy    = -1.78723480070776E+01
    PspCore energy  =  4.99465008732214E+00
    Loc. psp. energy= -7.47762466648831E+00
    NL   psp  energy= -9.60064957215482E+00
    >>>>>>>>> Etotal= -1.60248819696924E+01

 Other information on the energy :
    Total energy(eV)= -4.36059214588492E+02 ; Band energy (Ha)=  -2.5189049150E+00

 Cartesian components of stress tensor (hartree/bohr^3)
  sigma(1 1)= -3.39892900E-04  sigma(3 2)=  0.00000000E+00
  sigma(2 2)= -3.39892900E-04  sigma(3 1)=  0.00000000E+00
  sigma(3 3)= -3.39892900E-04  sigma(2 1)=  0.00000000E+00

-Cartesian components of stress tensor (GPa)         [Pressure=  1.0000E+01 GPa]
- sigma(1 1)= -9.99999269E+00  sigma(3 2)=  0.00000000E+00
- sigma(2 2)= -9.99999269E+00  sigma(3 1)=  0.00000000E+00
- sigma(3 3)= -9.99999269E+00  sigma(2 1)=  0.00000000E+00

== END DATASET(S) ==============================================================

 -outvars: echo values of variables after computation  --------
     acell    5.6127831866E+00  5.6127831866E+00  5.6127831866E+00 Bohr
       amu    5.09415000E+01  1.40067400E+01
    diemac    1.20000000E+01
   dilatmx    1.20000000E+00
      ecut    4.00000000E+01 Hartree
    ecutsm    5.00000000E-01 Hartree
    etotal1  -1.6024881970E+01
     fcart1  -0.0000000000E+00 -0.0000000000E+00 -0.0000000000E+00
             -0.0000000000E+00 -0.0000000000E+00 -0.0000000000E+00
    ionmov         2
      iscf         5
       ixc        11
    jdtset      1
       kpt   -8.33333333E-02 -1.66666667E-01  0.00000000E+00
             -8.33333333E-02 -3.33333333E-01  0.00000000E+00
             -1.66666667E-01 -2.50000000E-01  0.00000000E+00
             -8.33333333E-02 -2.50000000E-01  8.33333333E-02
             -8.33333333E-02  5.00000000E-01  0.00000000E+00
             -1.66666667E-01 -4.16666667E-01  0.00000000E+00
             -8.33333333E-02 -4.16666667E-01  8.33333333E-02
             -2.50000000E-01 -3.33333333E-01  0.00000000E+00
             -1.66666667E-01 -3.33333333E-01  8.33333333E-02
             -8.33333333E-02 -3.33333333E-01  1.66666667E-01
             -8.33333333E-02  3.33333333E-01  0.00000000E+00
             -1.66666667E-01  4.16666667E-01  0.00000000E+00
             -2.50000000E-01  5.00000000E-01  0.00000000E+00
             -1.66666667E-01  5.00000000E-01  8.33333333E-02
             -3.33333333E-01 -4.16666667E-01  0.00000000E+00
             -2.50000000E-01 -4.16666667E-01  8.33333333E-02
             -1.66666667E-01 -4.16666667E-01  1.66666667E-01
             -8.33333333E-02 -4.16666667E-01  2.50000000E-01
             -8.33333333E-02  1.66666667E-01  0.00000000E+00
             -1.66666667E-01  2.50000000E-01  0.00000000E+00
             -2.50000000E-01  3.33333333E-01  0.00000000E+00
             -3.33333333E-01  4.16666667E-01  0.00000000E+00
             -4.16666667E-01  5.00000000E-01  0.00000000E+00
             -3.33333333E-01  5.00000000E-01  8.33333333E-02
             -2.50000000E-01  5.00000000E-01  1.66666667E-01
             -8.33333333E-02  0.00000000E+00  0.00000000E+00
             -2.50000000E-01  0.00000000E+00  0.00000000E+00
             -4.16666667E-01  0.00000000E+00  0.00000000E+00
   kptrlen    4.72800000E+01
  kptrlatt    6 -6  6  -6  6  6  -6 -6  6
P    mkmem        28
     natom         2
     nband        12
    ndtset         1
     ngfft        40      40      40
      nkpt        28
     nstep       100
      nsym        48
     ntime       100
    ntypat         2
       occ    2.000000  2.000000  2.000000  2.000000  2.000000  0.000000
              0.000000  0.000000  0.000000  0.000000  0.000000  0.000000
   optcell         2
     rprim    0.0000000000E+00  7.0710678119E-01  7.0710678119E-01
              7.0710678119E-01  0.0000000000E+00  7.0710678119E-01
              7.0710678119E-01  7.0710678119E-01  0.0000000000E+00
    shiftk    5.00000000E-01  5.00000000E-01  5.00000000E-01
   spgroup       225
 strtarget   -3.39892900E-04 -3.39892900E-04 -3.39892900E-04
              0.00000000E+00  0.00000000E+00  0.00000000E+00
    strten1  -3.3989290011E-04 -3.3989290011E-04 -3.3989290011E-04
              0.0000000000E+00  0.0000000000E+00  0.0000000000E+00
    symrel    1  0  0   0  1  0   0  0  1      -1  0  0   0 -1  0   0  0 -1
              0 -1  1   0 -1  0   1 -1  0       0  1 -1   0  1  0  -1  1  0
             -1  0  0  -1  0  1  -1  1  0       1  0  0   1  0 -1   1 -1  0
              0  1 -1   1  0 -1   0  0 -1       0 -1  1  -1  0  1   0  0  1
             -1  0  0  -1  1  0  -1  0  1       1  0  0   1 -1  0   1  0 -1
              0 -1  1   1 -1  0   0 -1  0       0  1 -1  -1  1  0   0  1  0
              1  0  0   0  0  1   0  1  0      -1  0  0   0  0 -1   0 -1  0
              0  1 -1   0  0 -1   1  0 -1       0 -1  1   0  0  1  -1  0  1
             -1  0  1  -1  1  0  -1  0  0       1  0 -1   1 -1  0   1  0  0
              0 -1  0   1 -1  0   0 -1  1       0  1  0  -1  1  0   0  1 -1
              1  0 -1   0  0 -1   0  1 -1      -1  0  1   0  0  1   0 -1  1
              0  1  0   0  0  1   1  0  0       0 -1  0   0  0 -1  -1  0  0
              1  0 -1   0  1 -1   0  0 -1      -1  0  1   0 -1  1   0  0  1
              0 -1  0   0 -1  1   1 -1  0       0  1  0   0  1 -1  -1  1  0
             -1  0  1  -1  0  0  -1  1  0       1  0 -1   1  0  0   1 -1  0
              0  1  0   1  0  0   0  0  1       0 -1  0  -1  0  0   0  0 -1
              0  0 -1   0  1 -1   1  0 -1       0  0  1   0 -1  1  -1  0  1
              1 -1  0   0 -1  1   0 -1  0      -1  1  0   0  1 -1   0  1  0
              0  0  1   1  0  0   0  1  0       0  0 -1  -1  0  0   0 -1  0
             -1  1  0  -1  0  0  -1  0  1       1 -1  0   1  0  0   1  0 -1
              0  0  1   0  1  0   1  0  0       0  0 -1   0 -1  0  -1  0  0
              1 -1  0   0 -1  0   0 -1  1      -1  1  0   0  1  0   0  1 -1
              0  0 -1   1  0 -1   0  1 -1       0  0  1  -1  0  1   0 -1  1
             -1  1  0  -1  0  1  -1  0  0       1 -1  0   1  0 -1   1  0  0
    timopt         2
    tolmxf    1.00000000E-08
    tolvrs    1.00000000E-18
     typat    1  2
       wtk      0.02778    0.02778    0.02778    0.05556    0.02778    0.02778
                0.05556    0.02778    0.05556    0.05556    0.02778    0.02778
                0.02778    0.05556    0.02778    0.05556    0.05556    0.05556
                0.02778    0.02778    0.02778    0.02778    0.02778    0.05556
                0.05556    0.00926    0.00926    0.00926
    xangst    0.0000000000E+00  0.0000000000E+00  0.0000000000E+00
              2.1002181128E+00  2.1002181128E+00  2.1002181128E+00
     xcart    0.0000000000E+00  0.0000000000E+00  0.0000000000E+00
              3.9688370526E+00  3.9688370526E+00  3.9688370526E+00
      xred    0.0000000000E+00  0.0000000000E+00  0.0000000000E+00
              5.0000000000E-01  5.0000000000E-01  5.0000000000E-01
     znucl     23.00000    7.00000

- as well as % of the total time and number of calls

-                                                          (-1=no count)
- fourwf(pot)         1555.836  65.4   1555.979  65.4         206820
- nonlop(apply)        474.563  20.0    474.610  20.0         206820
- projbd                93.780   3.9     93.717   3.9         325608
- fourwf(den)           69.093   2.9     69.088   2.9          16940
- nonlop(forces)        49.545   2.1     49.608   2.1          16940
- vtowfk(ssdiag)        21.835   0.9     21.860   0.9             -1
- getghc-other          20.395   0.9     20.106   0.8             -1
- 63   others           41.530   1.7     41.247   1.7

- subtotal            2326.577  97.8   2326.215  97.8

 Suggested references for the acknowledgment of ABINIT usage.

 [1] Ab initio pseudopotentials for electronic structure calculations of poly-atomic systems,
 using density-functional theory.
 M. Fuchs, M. Scheffler, Comput. Phys. Commun. 119, 67 (1999).
 Comment : Some pseudopotential generated using the FHI code were used.

 [2] A brief introduction to the ABINIT software package.
 X. Gonze, G.-M. Rignanese, M. Verstraete, J.-M. Beuken, Y. Pouillon, R. Caracas, F. Jollet,
 M. Torrent, G. Zerah, M. Mikami, Ph. Ghosez, M. Veithen, J.-Y. Raty, V. Olevano, F. Bruneval,
 L. Reining, R. Godby, G. Onida, D.R. Hamann, and D.C. Allan.
 Z. Kristallogr. 220, 558-562 (2005).
 Comment : the second generic paper describing the ABINIT project. Note that this paper
 should be cited, especially if you are using the GW part of ABINIT, as the authors
 of this part are not in the list of authors of the first paper.
 Note that it should not redistributed (Copyright by Oldenburg Wissenshaftverlag,
 the licence allows the authors to put it on the Web).

 [3] First-principles computation of material properties : the ABINIT software project.
 X. Gonze, J.-M. Beuken, R. Caracas, F. Detraux, M. Fuchs, G.-M. Rignanese, L. Sindic,
 M. Verstraete, G. Zerah, F. Jollet, M. Torrent, A. Roy, M. Mikami, Ph. Ghosez, J.-Y. Raty, D.C. Allan.
 Comment : the original paper describing the ABINIT project.

 And optionally :

 [4] Fast radix 2, 3, 4 and 5 kernels for Fast Fourier Transformations
 on computers with overlapping multiply-add instructions.
 S. Goedecker, SIAM J. on Scientific Computing 18, 1605 (1997).

 [5] Iterative minimization techniques for ab initio total-energy calculations:
 molecular dynamics and conjugate gradients.
 M.C. Payne, M.P. Teter, D.C. Allan, T.A. Arias and J.D. Joannopoulos, Rev. Mod. Phys. 64, 1045 (1992).

 Calculation completed.
.Delivered    0 WARNINGs and   5 COMMENTs to log file.