.Version 8.7.0 of ABINIT

 ABINIT is a project of the Universite Catholique de Louvain,
 Corning Inc. and other collaborators, see ~abinit/doc/developers/contributors.txt .
 Please read ~abinit/doc/users/acknowledgments.html for suggested
 acknowledgments of the ABINIT effort.

.Starting date : Thu 12 Apr 2018.
- ( at 18h33 )

- input  file    -> calc.in
- output file    -> calc.out
- root for input  files -> input_data/idat
- root for output files -> out_data/odat

 Symmetries : space group P1 (#  1); Bravais aP (primitive triclinic)
     intxc =       0    ionmov =       8      iscf =       7    lmnmax =       6
     lnmax =       6     mgfft =      50  mpssoang =       3    mqgrid =    3001
     natom =      40  nloc_mem =       1    nspden =       1   nspinor =       1
    nsppol =       1      nsym =       1    n1xccc =    2501    ntypat =       3
    occopt =       3   xclevel =       2
-    mband =         200        mffmem =           1         mkmem =           1
       mpw =          16          nfft =       12000          nkpt =           1
  Rough estimation (10% accuracy) of disk space for files :

------------- Echo of variables that govern the present computation ------------
-
- outvars: echo of selected default values
-   iomode0 =  0 , fftalg0 =312 , wfoptalg0 =  0
-
- outvars: echo of global parameters not present in the input file
-  max_nthreads =    0
-
 -outvars: echo values of preprocessed input variables --------
-          iomode           1
            acell      1.6131925339E+01  1.6131925339E+01  1.6131925339E+01 Bohr
              amu      1.37327000E+02  2.08980370E+02  1.59994000E+01
        autoparal           1
     densfor_pred           6
             ecut      1.00000000E+01 Hartree
-          fftalg         312
           ionmov           8
           istwfk        2
              ixc          11
         kptrlatt        1    0    0      0    1    0      0    0    1
          kptrlen      1.61319253E+01
         mem_test        0
P           mkmem           1
            natom          40
            nband         200
            ngfft          48      50      50
             nkpt           1
-          npband          20
-           npfft          10
            nstep          40
             nsym           1
            ntime          50
           ntypat           3
              occ      2.000000  2.000000  2.000000  2.000000  2.000000  2.000000
                       2.000000  2.000000  2.000000  2.000000  2.000000  2.000000
                       2.000000  2.000000  2.000000  2.000000  2.000000  2.000000
                       2.000000  2.000000  2.000000  2.000000  2.000000  2.000000
                       2.000000  2.000000  2.000000  2.000000  2.000000  2.000000
                       2.000000  2.000000  2.000000  2.000000  2.000000  2.000000
                       2.000000  2.000000  2.000000  2.000000  2.000000  2.000000
                       2.000000  2.000000  2.000000  2.000000  2.000000  2.000000
                       2.000000  2.000000  2.000000  2.000000  2.000000  2.000000
                       2.000000  2.000000  2.000000  2.000000  2.000000  2.000000
                       2.000000  2.000000  2.000000  2.000000  2.000000  2.000000
                       2.000000  2.000000  2.000000  2.000000  2.000000  2.000000
                       2.000000  2.000000  2.000000  2.000000  2.000000  2.000000
                       2.000000  2.000000  2.000000  2.000000  2.000000  2.000000
                       2.000000  2.000000  2.000000  2.000000  2.000000  2.000000
                       2.000000  2.000000  2.000000  2.000000  2.000000  2.000000
                       2.000000  2.000000  2.000000  2.000000  2.000000  2.000000
                       2.000000  2.000000  2.000000  2.000000  2.000000  2.000000
                       2.000000  2.000000  2.000000  2.000000  2.000000  2.000000
                       2.000000  2.000000  2.000000  2.000000  2.000000  2.000000
                       2.000000  2.000000  2.000000  2.000000  2.000000  2.000000
                       2.000000  2.000000  2.000000  2.000000  2.000000  2.000000
                       2.000000  2.000000  2.000000  2.000000  2.000000  2.000000
                       2.000000  2.000000  2.000000  2.000000  2.000000  2.000000
                       2.000000  2.000000  2.000000  2.000000  2.000000  2.000000
                       2.000000  2.000000  2.000000  2.000000  2.000000  2.000000
                       2.000000  2.000000  2.000000  2.000000  2.000000  2.000000
                       2.000000  2.000000  2.000000  2.000000  2.000000  2.000000
                       2.000000  2.000000  2.000000  2.000000  0.000000  0.000000
                       0.000000  0.000000  0.000000  0.000000  0.000000  0.000000
                       0.000000  0.000000  0.000000  0.000000  0.000000  0.000000
                       0.000000  0.000000  0.000000  0.000000  0.000000  0.000000
                       0.000000  0.000000  0.000000  0.000000  0.000000  0.000000
                       0.000000  0.000000
           occopt           3
           ortalg          -2
        paral_kgb           1
           prtden           0
            prtwf           0
          spgroup           1
           tolmxf      1.00000000E-06
           tolvrs      1.00000000E-07
            typat      1  1  1  1  1  1  1  1  2  2  2  2  2  2  2  2  3  3  3  3
                       3  3  3  3  3  3  3  3  3  3  3  3  3  3  3  3  3  3  3  3
         wfoptalg         114
           xangst     -1.3322512520E-02  2.0453806740E-08  1.3322531736E-02
                       4.2816461570E+00  2.0803809275E-08 -1.3322490581E-02
                       1.3322523866E-02  4.2683236222E+00 -1.3322506818E-02
                       4.2550010768E+00  4.2683236222E+00  1.3322498981E-02
                       1.3322504394E-02  2.0505026883E-08  4.2550010694E+00
                       4.2550010939E+00  2.0726979713E-08  4.2816461288E+00
                      -1.3322483837E-02  4.2683236220E+00  4.2816461514E+00
                       4.2816461223E+00  4.2683236223E+00  4.2550010994E+00
                       2.1341618330E+00  2.1341617939E+00  2.1341618200E+00
                       6.4024853885E+00  2.1341617906E+00  2.1341618373E+00
                       2.1341618231E+00  6.4024854339E+00  2.1341618278E+00
                       6.4024853989E+00  6.4024854350E+00  2.1341618250E+00
                       2.1341618217E+00  2.1341617988E+00  6.4024854036E+00
                       6.4024854047E+00  2.1341617931E+00  6.4024853911E+00
                       2.1341618316E+00  6.4024854263E+00  6.4024853923E+00
                       6.4024853955E+00  6.4024854331E+00  6.4024853997E+00
                       2.1341617988E+00  2.3844700121E+00 -3.4061222408E-09
                      -3.3463654643E-09  1.8838536235E+00  2.1341617979E+00
                       2.3639087396E+00  4.7975958543E-09  1.9044148398E+00
                       6.4024854288E+00  1.8838536262E+00  4.7207659128E-09
                       4.2683236178E+00  2.3844700166E+00  2.1341617993E+00
                       6.1727384932E+00  4.6183262909E-09  2.3639087402E+00
                       2.1341617985E+00  6.1521772406E+00 -2.5268475772E-09
                      -3.3975850556E-09  6.6527935930E+00  2.1341617990E+00
                       1.9044148418E+00  4.2683236494E+00  2.3639087393E+00
                       6.4024854290E+00  6.6527935892E+00  5.8219934042E-09
                       4.2683236182E+00  6.1521772365E+00  2.1341618001E+00
                       6.6322323688E+00  4.2683236506E+00  1.9044148448E+00
                       2.1341617997E+00  1.8838536167E+00  4.2683236164E+00
                       4.3707639148E-09  2.3844700063E+00  6.4024854280E+00
                       1.9044148441E+00  4.4732035495E-09  6.6322323705E+00
                       6.4024854288E+00  2.3844700135E+00  4.2683236267E+00
                       4.2683236278E+00  1.8838536215E+00  6.4024854277E+00
                       6.6322323702E+00  4.0719811020E-09  6.1727384954E+00
                       2.1341617995E+00  6.6527935994E+00  4.2683236171E+00
                       4.8402797426E-09  6.1521772467E+00  6.4024854293E+00
                       2.3639087366E+00  4.2683236490E+00  6.1727384943E+00
                       6.4024854289E+00  6.1521772383E+00  4.2683236277E+00
                       4.2683236272E+00  6.6527935948E+00  6.4024854291E+00
                       6.1727384976E+00  4.2683236490E+00  6.6322323699E+00
            xcart     -2.5175900066E-02  3.8652093114E-08  2.5175936379E-02
                       8.0911386346E+00  3.9313502050E-08 -2.5175858607E-02
                       2.5175921505E-02  8.0659626924E+00 -2.5175889289E-02
                       8.0407867303E+00  8.0659626926E+00  2.5175874480E-02
                       2.5175884708E-02  3.8748885157E-08  8.0407867164E+00
                       8.0407867626E+00  3.9168315219E-08  8.0911385813E+00
                      -2.5175845862E-02  8.0659626921E+00  8.0911386240E+00
                       8.0911385692E+00  8.0659626928E+00  8.0407867730E+00
                       4.0329813876E+00  4.0329813137E+00  4.0329813632E+00
                       1.2098943954E+01  4.0329813074E+00  4.0329813957E+00
                       4.0329813690E+00  1.2098944040E+01  4.0329813777E+00
                       1.2098943974E+01  1.2098944042E+01  4.0329813726E+00
                       4.0329813663E+00  4.0329813229E+00  1.2098943983E+01
                       1.2098943985E+01  4.0329813122E+00  1.2098943959E+01
                       4.0329813851E+00  1.2098944026E+01  1.2098943961E+01
                       1.2098943967E+01  1.2098944038E+01  1.2098943975E+01
                       4.0329813230E+00  4.5059952949E+00 -6.4366382103E-09
                      -6.3237142680E-09  3.5599674228E+00  4.0329813214E+00
                       4.4671401210E+00  9.0661422610E-09  3.5988224906E+00
                       1.2098944030E+01  3.5599674280E+00  8.9209547126E-09
                       8.0659626841E+00  4.5059953034E+00  4.0329813239E+00
                       1.1664785242E+01  8.7273718820E-09  4.4671401222E+00
                       4.0329813225E+00  1.1625930106E+01 -4.7750499004E-09
                      -6.4205052682E-09  1.2571957909E+01  4.0329813234E+00
                       3.5988224944E+00  8.0659627438E+00  4.4671401205E+00
                       1.2098944031E+01  1.2571957902E+01  1.1001973081E-08
                       8.0659626849E+00  1.1625930098E+01  4.0329813254E+00
                       1.2533102827E+01  8.0659627461E+00  3.5988225000E+00
                       4.0329813247E+00  3.5599674100E+00  8.0659626816E+00
                       8.2595467904E-09  4.5059952840E+00  1.2098944029E+01
                       3.5988224987E+00  8.4531296452E-09  1.2533102830E+01
                       1.2098944030E+01  4.5059952976E+00  8.0659627010E+00
                       8.0659627030E+00  3.5599674190E+00  1.2098944028E+01
                       1.2533102829E+01  7.6949291010E-09  1.1664785246E+01
[...]
                      -1.1009533583E-01 -1.6849842316E-01  1.2594580704E-01
                       2.9642223320E-01 -8.1538993431E-01 -7.2941730252E-02
                      -1.5255666947E-02 -2.8176777511E-01  9.2734836544E-01
                      -5.3564175656E-01 -4.5662839455E-02 -1.3573616307E-01
                       7.0401986164E-01  1.3119032745E+00  2.0211512606E-01
-          fftalg         312
           ionmov           8
           istwfk        2
              ixc          11
         kptrlatt        1    0    0      0    1    0      0    0    1
          kptrlen      1.61319253E+01
         mem_test        0
P           mkmem           1
            natom          40
            nband         200
            ngfft          48      50      50
             nkpt           1
-          npband          20
-           npfft          10
            nstep          40
             nsym           1
            ntime          50
           ntypat           3
              occ      2.000000  2.000000  2.000000  2.000000  2.000000  2.000000
                       2.000000  2.000000  2.000000  2.000000  2.000000  2.000000
                       2.000000  2.000000  2.000000  2.000000  2.000000  2.000000
                       2.000000  2.000000  2.000000  2.000000  2.000000  2.000000
                       2.000000  2.000000  2.000000  2.000000  2.000000  2.000000
                       2.000000  2.000000  2.000000  2.000000  2.000000  2.000000
                       2.000000  2.000000  2.000000  2.000000  2.000000  2.000000
                       2.000000  2.000000  2.000000  2.000000  2.000000  2.000000
                       2.000000  2.000000  2.000000  2.000000  2.000000  2.000000
                       2.000000  2.000000  2.000000  2.000000  2.000000  2.000000
                       2.000000  2.000000  2.000000  2.000000  2.000000  2.000000
                       2.000000  2.000000  2.000000  2.000000  2.000000  2.000000
                       2.000000  2.000000  2.000000  2.000000  2.000000  2.000000
                       2.000000  2.000000  2.000000  2.000000  2.000000  2.000000
                       2.000000  2.000000  2.000000  2.000000  2.000000  2.000000
                       2.000000  2.000000  2.000000  2.000000  2.000000  2.000000
                       2.000000  2.000000  2.000000  2.000000  2.000000  2.000000
                       2.000000  2.000000  2.000000  2.000000  2.000000  2.000000
                       2.000000  2.000000  2.000000  2.000000  2.000000  2.000000
                       2.000000  2.000000  2.000000  2.000000  2.000000  2.000000
                       2.000000  2.000000  2.000000  2.000000  2.000000  2.000000
                       2.000000  2.000000  2.000000  2.000000  2.000000  2.000000
                       2.000000  2.000000  2.000000  2.000000  2.000000  2.000000
                       2.000000  2.000000  2.000000  2.000000  2.000000  2.000000
                       2.000000  2.000000  2.000000  2.000000  2.000000  2.000000
                       2.000000  2.000000  2.000000  2.000000  2.000000  2.000000
                       2.000000  2.000000  2.000000  2.000000  1.999999  1.999997
                       1.999985  1.999963  1.999927  1.999858  1.999388  1.987855
                       1.939752  1.876626  1.732783  1.334408  0.754302  0.266361
                       0.092845  0.014337  0.001407  0.000163  0.000029  0.000008
                       0.000005  0.000001  0.000000  0.000000  0.000000  0.000000
                       0.000000  0.000000  0.000000  0.000000  0.000000  0.000000
                       0.000000  0.000000  0.000000  0.000000  0.000000  0.000000
                       0.000000  0.000000
           occopt           3
           ortalg          -2
        paral_kgb           1
           prtden           0
            prtwf           0
          spgroup           1
           strten      7.9645035843E-03  7.7785273118E-03  7.7879026781E-03
                      -3.7710052071E-04 -2.4822447540E-04  5.3564354692E-05
           tolmxf      1.00000000E-06
           tolvrs      1.00000000E-07
            typat      1  1  1  1  1  1  1  1  2  2  2  2  2  2  2  2  3  3  3  3
                       3  3  3  3  3  3  3  3  3  3  3  3  3  3  3  3  3  3  3  3
              vel      8.2487237084E-06 -1.2105599801E-05  8.4679511528E-06
                       1.9931454114E-05  8.0754263758E-06 -1.0350387737E-05
                       4.9313086325E-06  1.1905719926E-05  4.4890315854E-05
                      -8.1853368211E-06 -1.0216301628E-05  8.1423734031E-06
                       4.8228519409E-05 -5.9814671287E-05 -9.0164695721E-05
                      -4.5131374247E-05 -5.6957097634E-05 -8.2369331702E-05
                      -2.3975011822E-05  6.1993860182E-06 -7.3374400986E-05
                       9.8157200266E-07  1.3049516064E-05 -8.0319176446E-05
                       3.8018169757E-05 -3.4099629122E-05  2.6371625089E-05
                       4.2294287246E-05 -4.3798676461E-06  2.8777222699E-05
                       5.3337887878E-05  1.2710114844E-05  1.4438777299E-04
                      -6.5089147631E-07  2.0867808866E-05  1.1437853299E-04
                       2.0624048198E-05 -2.3694444613E-05 -1.6453651098E-05
                       4.1096633647E-05  3.1043369219E-05  1.0230895392E-05
                      -3.3087533043E-05 -1.6644618347E-05  3.5607515499E-05
                       2.8048256514E-05 -2.5251463049E-05 -1.4817171976E-05
                       1.3019747753E-03  3.0740259136E-04 -8.2344113938E-05
                      -1.0572445948E-03 -7.9682420502E-04  1.8618495763E-04
                       1.9388767352E-05 -5.4581060308E-04  1.8112137963E-03
                      -2.6912905962E-04 -4.2225239494E-04  1.2859130380E-03
                      -2.3007096460E-03  3.8799784331E-04  4.9973068670E-04
                       9.2826081764E-04 -2.4569771684E-03 -1.4776117791E-03
                      -3.0621324948E-04 -4.5481910404E-04  1.1903943054E-03
                      -1.5086648936E-03  9.0522498132E-04  1.4269945508E-03
                      -9.2791312909E-05  2.1331980960E-03 -1.4642273831E-03
                      -1.2030323620E-04 -4.0156888571E-04  2.6838912368E-03
                       1.2239406388E-03 -8.5886069757E-04  2.6997744033E-03
                       8.3605771769E-04  2.8869179107E-03  8.4332558758E-04
                      -1.9269320626E-04  3.4270582588E-05 -2.5851800590E-03
                      -1.7544724564E-05 -2.5374740117E-04 -4.3845027069E-04
                      -1.0359526123E-04  6.6220090298E-04  1.8292194355E-04
                      -1.8477728971E-04  4.8865813489E-04 -3.1379788870E-03
                      -1.2369045902E-03 -6.1429200230E-04 -4.9328215010E-04
                      -8.5188333707E-04  7.8807226924E-04 -1.8922484618E-04
                       2.9593897366E-04  2.3593957867E-04 -1.7996490889E-03
                       4.1338112100E-04  9.5944235501E-05  2.0730140062E-04
                       3.2298510232E-05 -1.1193800506E-03 -4.6792847029E-04
                       2.8038527890E-06  1.0141984642E-06 -3.6311552050E-03
                       2.7379628740E-04  3.4540660972E-04  2.3357971064E-04
                       3.9387397893E-04  2.4709904861E-05  5.8630319644E-04
         wfoptalg         114
           xangst      9.4867919311E-03  2.2302334098E-02  1.9904880057E-03
                       4.2870664720E+00 -1.4276962566E-02 -5.4122315025E-02
                       5.4582672755E-02  4.2887322714E+00  9.5924187621E-03
                       4.2783477473E+00  4.2328994896E+00  1.0863894473E-02
                       5.2049340492E-02  2.0610971182E-02  4.2924812064E+00
                       4.2262239815E+00  1.6802747464E-02  4.2626911549E+00
                      -5.0767017522E-02  4.2644822694E+00  4.2738102992E+00
                       4.2757985637E+00  4.2974399713E+00  4.2434152529E+00
                       2.1274061714E+00  2.1603488931E+00  2.1547464685E+00
                       6.4222396429E+00  2.1102542140E+00  2.1595954060E+00
                       2.1694523574E+00  6.4189350866E+00  2.1660793888E+00
                       6.4240426744E+00  6.4233002910E+00  2.1447794204E+00
                       2.1478231983E+00  2.1508429982E+00  6.4405260729E+00
                       6.3977866937E+00  2.1563448388E+00  6.4266963681E+00
                       2.1342992623E+00  6.4235609437E+00  6.3790431266E+00
                       6.4374399783E+00  6.4297279031E+00  6.3957978803E+00
                       2.2933438232E+00  2.3382661387E+00 -1.6169683369E-01
                       2.7510142203E-02  1.8521604668E+00  1.8913395634E+00
                       2.0849844306E+00 -1.7239344028E-01  1.8200087458E+00
                       6.0744931705E+00  1.8047188897E+00 -2.3370822011E-01
                       4.4307643203E+00  2.3294222418E+00  1.6982983500E+00
                       6.5549582755E+00 -3.4036577698E-01  2.7050513318E+00
                       2.1435946260E+00  6.1834434336E+00 -1.9585862065E-01
                      -6.9796922253E-02  6.6862262532E+00  2.5989013376E+00
                       2.2258785079E+00  4.3991296600E+00  2.6913368041E+00
                       6.3945382318E+00  6.7236458553E+00 -7.5985048970E-02
                       4.2756379571E+00  6.2680369955E+00  1.9791644717E+00
                       6.1972643157E+00  4.4097572339E+00  1.9117915568E+00
                       2.1336819333E+00  1.7889338976E+00  4.3360194129E+00
                       1.3654134771E-01  2.4279273404E+00  6.0781177173E+00
                       2.1322552839E+00 -4.0366260295E-01  6.8705003081E+00
                       6.3556324555E+00  2.3557301210E+00  4.4354827782E+00
                       4.6541553204E+00  1.5042442017E+00  6.2577433033E+00
                       5.8488951648E+00  4.0802873864E-02  6.2064264129E+00
                       2.0777655868E+00  6.9945704328E+00  4.5316620780E+00
                       3.1629353665E-01  6.2107166371E+00  6.1137072277E+00
                       1.9143982273E+00  4.6647830227E+00  5.9275805989E+00
                       6.4190330316E+00  6.1169387124E+00  4.0518731626E+00
                       4.3761518620E+00  6.8821371110E+00  6.6051458540E+00
                       6.4650535486E+00  4.2150837490E+00  6.8434370355E+00
            xcart      1.7927438629E-02  4.2145303569E-02  3.7614772015E-03
                       8.1013815455E+00 -2.6979549260E-02 -1.0227635308E-01
                       1.0314630311E-01  8.1045294502E+00  1.8127044412E-02
                       8.0849055437E+00  7.9990207834E+00  2.0529785291E-02
                       9.8358998926E-02  3.8949090868E-02  8.1116139107E+00
                       7.9864059012E+00  3.1752590987E-02  8.0553188719E+00
                      -9.5935759700E-02  8.0587035878E+00  8.0763310093E+00
                       8.0800882848E+00  8.1209846183E+00  8.0188926960E+00
                       4.0202150374E+00  4.0824677595E+00  4.0718807113E+00
                       1.2136274085E+01  3.9878025353E+00  4.0810438751E+00
                       4.0996708138E+00  1.2130029378E+01  4.0932968269E+00
                       1.2139681321E+01  1.2138278419E+01  4.0530457199E+00
                       4.0587976266E+00  4.0645042214E+00  1.2170830430E+01
                       1.2090064708E+01  4.0749011935E+00  1.2144696075E+01
                       4.0332410913E+00  1.2138770981E+01  1.2054644499E+01
                       1.2164998556E+01  1.2150424846E+01  1.2086306395E+01
                       4.3337917545E+00  4.4186826279E+00 -3.0556273222E-01
                       5.1986634640E-02  3.5000760364E+00  3.5741137992E+00
                       3.9400495652E+00 -3.2577638924E-01  3.4393180890E+00
                       1.1479128488E+01  3.4104244484E+00 -4.4164453101E-01
                       8.3729311247E+00  4.4019700848E+00  3.2093187735E+00
                       1.2387075953E+01 -6.4319810350E-01  5.1118061925E+00
                       4.0508067831E+00  1.1685014648E+01 -3.7011915380E-01
                      -1.3189706798E-01  1.2635136481E+01  4.9112117744E+00
                       4.2063007849E+00  8.3131502804E+00  5.0858894910E+00
                       1.2083926004E+01  1.2705849281E+01 -1.4359093275E-01
                       8.0797847824E+00  1.1844873312E+01  3.7400788235E+00
                       1.1711132330E+01  8.3332334846E+00  3.6127624656E+00
                       4.0320745086E+00  3.3805951362E+00  8.1938891972E+00
                       2.5802575299E-01  4.5881177440E+00  1.1485977889E+01
                       4.0293785320E+00 -7.6281176965E-01  1.2983363978E+01
                       1.2010404742E+01  4.4516847716E+00  8.3818477179E+00
                       8.7950789355E+00  2.8426095782E+00  1.1825421053E+01
                       1.1052810041E+01  7.7106257037E-02  1.1728446184E+01
                       3.9264079275E+00  1.3217822535E+01  8.5636002541E+00
                       5.9770816188E-01  1.1736553533E+01  1.1553232317E+01
                       3.6176883589E+00  8.8151623822E+00  1.1201503963E+01
                       1.2130214468E+01  1.1559338938E+01  7.6569306024E+00
                       8.2697285351E+00  1.3005354349E+01  1.2481916732E+01
                       1.2217180641E+01  7.9653539128E+00  1.2932221805E+01
             xred      1.1113018597E-03  2.6125402072E-03  2.3316976259E-04
                       5.0219557649E-01 -1.6724320682E-03 -6.3399966789E-03
                       6.3939239079E-03  5.0239071158E-01  1.1236751988E-03
                       5.0117424757E-01  4.9585034739E-01  1.2726184172E-03
                       6.0971642788E-03  2.4144105585E-03  5.0282986936E-01
                       4.9506836495E-01  1.9683075839E-03  4.9934020289E-01
                      -5.9469503908E-03  4.9955001764E-01  5.0064272178E-01
                       5.0087563108E-01  5.0341074903E-01  4.9708218501E-01
                       2.4920863151E-01  2.5306760809E-01  2.5241132882E-01
                       7.5231404992E-01  2.4719941678E-01  2.5297934309E-01
                       2.5413400618E-01  7.5192694755E-01  2.5373888986E-01
                       7.5252526065E-01  7.5243829636E-01  2.5124376878E-01
                       2.5160032304E-01  2.5195406847E-01  7.5445615905E-01
                       7.4944958233E-01  2.5259856513E-01  7.5283611966E-01
                       2.5001610202E-01  7.5246882974E-01  7.4725392324E-01
                       7.5409464773E-01  7.5319123975E-01  7.4921660874E-01
                       2.6864690131E-01  2.7390919156E-01 -1.8941491843E-02
                       3.2225933078E-03  2.1696579688E-01  2.2155531494E-01
                       2.4423926360E-01 -2.0194513822E-02  2.1319947971E-01
                       7.1157832974E-01  2.1140839526E-01 -2.7377050273E-02
                       5.1902863103E-01  2.7287319971E-01  1.9894207951E-01
                       7.6786097709E-01 -3.9871130691E-02  3.1687514571E-01
                       2.5110497959E-01  7.2434098237E-01 -2.2943272177E-02
                      -8.1761516499E-03  7.8323797163E-01  3.0444052220E-01
                       2.6074387877E-01  5.1532288339E-01  3.1526859839E-01
                       7.4906905099E-01  7.8762137897E-01 -8.9010412414E-03
                       5.0085681730E-01  7.3425044210E-01  2.3184330108E-01
                       7.2595998826E-01  5.1656781875E-01  2.2395110253E-01
                       2.4994378686E-01  2.0955930958E-01  5.0793002230E-01
                       1.5994727695E-02  2.8441228480E-01  7.1200291643E-01
                       2.4977666629E-01 -4.7285848007E-02  8.0482420451E-01
                       7.4451155022E-01  2.7595495752E-01  5.1958136067E-01
                       5.4519710144E-01  1.7621018684E-01  7.3304461833E-01
                       6.8515132627E-01  4.7797305911E-03  7.2703325473E-01
                       2.4339363374E-01  8.1935802809E-01  5.3084799700E-01
                       3.7051260114E-02  7.2753582020E-01  7.1617194316E-01
                       2.2425645314E-01  5.4644205182E-01  6.9436869605E-01
                       7.5193842103E-01  7.1655048576E-01  4.7464455987E-01
                       5.1263121799E-01  8.0618736297E-01  7.7374005082E-01
                       7.5732935681E-01  4.9376337575E-01  8.0165395840E-01
            znucl       56.00000   83.00000    8.00000

- Timing analysis has been suppressed with timopt=0

 Suggested references for the acknowledgment of ABINIT usage.

 Calculation completed.
.Delivered  23 WARNINGs and   0 COMMENTs to log file.