.Version 8.10.2 of ABINIT

 ABINIT is a project of the Universite Catholique de Louvain,
 Corning Inc. and other collaborators, see ~abinit/doc/developers/contributors.txt .
 acknowledgments of the ABINIT effort.

.Starting date : Tue 10 Dec 2019.
- ( at 14h09 )

- input  file    -> tudet_1.in
- output file    -> tudet_1.out
- root for input  files -> tudet_1i
- root for output files -> tudet_1o

 Symmetries : the unit cell is not primitive
     intxc =       0    ionmov =       0      iscf =      17    lmnmax =      18
     lnmax =       6     mgfft =      72  mpssoang =       3    mqgrid =    5513
     natom =      24  nloc_mem =       2    nspden =       2   nspinor =       1
    nsppol =       2      nsym =       8    n1xccc =       1    ntypat =       3
    occopt =       4   xclevel =       1
-    mband =         120        mffmem =           1         mkmem =           8
       mpw =        2592          nfft =       43200          nkpt =           8
 PAW method is used; the additional fine FFT grid is defined by:
   mgfftf=       120    nfftf =    184320
  Rough estimation (10% accuracy) of disk space for files :

------------- Echo of variables that govern the present computation ------------
-
- outvars: echo of selected default values
-   iomode0 =  0 , fftalg0 =312 , wfoptalg0 = 10
-
- outvars: echo of global parameters not present in the input file
-  max_nthreads =    0
-
 -outvars: echo values of preprocessed input variables --------
            acell      7.8500000000E+00  2.7380000000E+01  1.0960000000E+01 Bohr
              amu      1.37327000E+02  5.86900000E+01  1.89984032E+01
             ecut      8.00000000E+00 Hartree
-          fftalg         312
           istwfk        0    0    0    0    0    0    0    9
              ixc           7
              kpt      1.66666667E-01  1.66666667E-01  1.66666667E-01
                       5.00000000E-01  1.66666667E-01  1.66666667E-01
                       1.66666667E-01  5.00000000E-01  1.66666667E-01
                       5.00000000E-01  5.00000000E-01  1.66666667E-01
                       1.66666667E-01  1.66666667E-01  5.00000000E-01
                       5.00000000E-01  1.66666667E-01  5.00000000E-01
                       1.66666667E-01  5.00000000E-01  5.00000000E-01
                       5.00000000E-01  5.00000000E-01  5.00000000E-01
         kptrlatt        3    0    0      0    3    0      0    0    3
          kptrlen      2.35500000E+01
            lpawu          -1       2      -1
P           mkmem           8
            natom          24
            nband         120
            ngfft          20      72      30
          ngfftdg          32     120      48
             nkpt           8
           nspden           2
           nsppol           2
            nstep          15
             nsym           8
           ntypat           3
              occ      1.000000  1.000000  1.000000  1.000000  1.000000  1.000000
                       1.000000  1.000000  1.000000  1.000000  1.000000  1.000000
                       1.000000  1.000000  1.000000  1.000000  1.000000  1.000000
                       1.000000  1.000000  1.000000  1.000000  1.000000  1.000000
                       1.000000  1.000000  1.000000  1.000000  1.000000  1.000000
                       1.000000  1.000000  1.000000  1.000000  1.000000  1.000000
                       1.000000  1.000000  1.000000  1.000000  1.000000  1.000000
                       1.000000  1.000000  1.000000  1.000000  1.000000  1.000000
                       1.000000  1.000000  1.000000  1.000000  1.000000  1.000000
                       1.000000  1.000000  1.000000  1.000000  1.000000  1.000000
                       1.000000  1.000000  1.000000  1.000000  1.000000  1.000000
                       1.000000  1.000000  1.000000  1.000000  1.000000  1.000000
                       1.000000  1.000000  1.000000  1.000000  1.000000  1.000000
                       1.000000  1.000000  1.000000  1.000000  1.000000  1.000000
                       1.000000  1.000000  1.000000  1.000000  1.000000  1.000000
                       1.000000  1.000000  1.000000  1.000000  1.000000  1.000000
                       1.000000  1.000000  1.000000  1.000000  1.000000  1.000000
                       1.000000  1.000000  1.000000  1.000000  1.000000  1.000000
                       1.000000  1.000000  1.000000  1.000000  0.000000  0.000000
                       0.000000  0.000000  0.000000  0.000000  0.000000  0.000000
                       1.000000  1.000000  1.000000  1.000000  1.000000  1.000000
                       1.000000  1.000000  1.000000  1.000000  1.000000  1.000000
                       1.000000  1.000000  1.000000  1.000000  1.000000  1.000000
                       1.000000  1.000000  1.000000  1.000000  1.000000  1.000000
                       1.000000  1.000000  1.000000  1.000000  1.000000  1.000000
                       1.000000  1.000000  1.000000  1.000000  1.000000  1.000000
                       1.000000  1.000000  1.000000  1.000000  1.000000  1.000000
                       1.000000  1.000000  1.000000  1.000000  1.000000  1.000000
                       1.000000  1.000000  1.000000  1.000000  1.000000  1.000000
                       1.000000  1.000000  1.000000  1.000000  1.000000  1.000000
                       1.000000  1.000000  1.000000  1.000000  1.000000  1.000000
                       1.000000  1.000000  1.000000  1.000000  1.000000  1.000000
                       1.000000  1.000000  1.000000  1.000000  1.000000  1.000000
                       1.000000  1.000000  1.000000  1.000000  1.000000  1.000000
                       1.000000  1.000000  1.000000  1.000000  1.000000  1.000000
                       1.000000  1.000000  1.000000  1.000000  1.000000  1.000000
                       1.000000  1.000000  1.000000  1.000000  1.000000  1.000000
                       1.000000  1.000000  1.000000  1.000000  1.000000  1.000000
                       1.000000  1.000000  1.000000  1.000000  0.000000  0.000000
                       0.000000  0.000000  0.000000  0.000000  0.000000  0.000000
                       1.000000  1.000000  1.000000  1.000000  1.000000  1.000000
                       1.000000  1.000000  1.000000  1.000000  1.000000  1.000000
                       1.000000  1.000000  1.000000  1.000000  1.000000  1.000000
                       1.000000  1.000000  1.000000  1.000000  1.000000  1.000000
                       1.000000  1.000000  1.000000  1.000000  1.000000  1.000000
                       1.000000  1.000000  1.000000  1.000000  1.000000  1.000000
                       1.000000  1.000000  1.000000  1.000000  1.000000  1.000000
                       1.000000  1.000000  1.000000  1.000000  1.000000  1.000000
                       1.000000  1.000000  1.000000  1.000000  1.000000  1.000000
                       1.000000  1.000000  1.000000  1.000000  1.000000  1.000000
                       1.000000  1.000000  1.000000  1.000000  1.000000  1.000000
                       1.000000  1.000000  1.000000  1.000000  1.000000  1.000000
                       1.000000  1.000000  1.000000  1.000000  1.000000  1.000000
                       1.000000  1.000000  1.000000  1.000000  1.000000  1.000000
                       1.000000  1.000000  1.000000  1.000000  1.000000  1.000000
                       1.000000  1.000000  1.000000  1.000000  1.000000  1.000000
                       1.000000  1.000000  1.000000  1.000000  1.000000  1.000000
                       1.000000  1.000000  1.000000  1.000000  1.000000  1.000000
                       1.000000  1.000000  1.000000  1.000000  0.000000  0.000000
                       0.000000  0.000000  0.000000  0.000000  0.000000  0.000000
                       1.000000  1.000000  1.000000  1.000000  1.000000  1.000000
[...]
                       1.000000  1.000000  1.000000  1.000000  1.000000  1.000000
                       1.000000  1.000000  1.000000  1.000000  1.000000  1.000000
                       1.000000  1.000000  1.000000  1.000000  1.000000  1.000000
                       1.000000  1.000000  1.000000  1.000000  1.000000  1.000000
                       1.000000  1.000000  1.000000  1.000000  1.000000  1.000000
                       1.000000  1.000000  1.000000  1.000000  1.000000  1.000000
                       1.000000  1.000000  1.000000  1.000000  1.000000  1.000000
                       1.000000  1.000000  1.000000  1.000000  1.000000  1.000000
                       1.000000  1.000000  1.000000  1.000000  1.000000  1.000000
                       1.000000  1.000000  1.000000  1.000000  1.000000  1.000000
                       1.000000  1.000000  1.000000  1.000000  1.000000  1.000000
                       1.000000  1.000000  1.000000  1.000000  1.000000  1.000000
                       1.000000  1.000000  1.000000  1.000000  1.000000  1.000000
                       1.000000  1.000000  1.000000  1.000000  0.000000  0.000000
                       0.000000  0.000000  0.000000  0.000000  0.000000  0.000000
           occopt           4
        pawecutdg      2.00000000E+01 Hartree
           prteig           0
           shiftk      5.00000000E-01  5.00000000E-01  5.00000000E-01
           spinat      0.0000000000E+00  0.0000000000E+00  0.0000000000E+00
                       0.0000000000E+00  0.0000000000E+00  0.0000000000E+00
                       0.0000000000E+00  0.0000000000E+00  0.0000000000E+00
                       0.0000000000E+00  0.0000000000E+00  0.0000000000E+00
                       0.0000000000E+00  0.0000000000E+00  2.0000000000E+00
                       0.0000000000E+00  0.0000000000E+00  2.0000000000E+00
                       0.0000000000E+00  0.0000000000E+00  2.0000000000E+00
                       0.0000000000E+00  0.0000000000E+00  2.0000000000E+00
                       0.0000000000E+00  0.0000000000E+00  0.0000000000E+00
                       0.0000000000E+00  0.0000000000E+00  0.0000000000E+00
                       0.0000000000E+00  0.0000000000E+00  0.0000000000E+00
                       0.0000000000E+00  0.0000000000E+00  0.0000000000E+00
                       0.0000000000E+00  0.0000000000E+00  0.0000000000E+00
                       0.0000000000E+00  0.0000000000E+00  0.0000000000E+00
                       0.0000000000E+00  0.0000000000E+00  0.0000000000E+00
                       0.0000000000E+00  0.0000000000E+00  0.0000000000E+00
                       0.0000000000E+00  0.0000000000E+00  0.0000000000E+00
                       0.0000000000E+00  0.0000000000E+00  0.0000000000E+00
                       0.0000000000E+00  0.0000000000E+00  0.0000000000E+00
                       0.0000000000E+00  0.0000000000E+00  0.0000000000E+00
                       0.0000000000E+00  0.0000000000E+00  0.0000000000E+00
                       0.0000000000E+00  0.0000000000E+00  0.0000000000E+00
                       0.0000000000E+00  0.0000000000E+00  0.0000000000E+00
                       0.0000000000E+00  0.0000000000E+00  0.0000000000E+00
           symrel      1  0  0   0  1  0   0  0  1       1  0  0   0  1  0   0  0  1
[...]
                      -2.5483368544E-28  7.6613966411E-02  4.8655314273E-02
                       2.4254123108E-30  1.0823415309E-02 -1.6416798227E-04
                       1.0532905141E-28 -1.0823415309E-02 -1.6416798227E-04
                       3.1113632962E-28  1.0823415309E-02 -1.6416798227E-04
                       4.7119155954E-29 -1.0823415309E-02 -1.6416798227E-04
-          fftalg         312
           istwfk        0    0    0    0    0    0    0    9
              ixc           7
              kpt      1.66666667E-01  1.66666667E-01  1.66666667E-01
                       5.00000000E-01  1.66666667E-01  1.66666667E-01
                       1.66666667E-01  5.00000000E-01  1.66666667E-01
                       5.00000000E-01  5.00000000E-01  1.66666667E-01
                       1.66666667E-01  1.66666667E-01  5.00000000E-01
                       5.00000000E-01  1.66666667E-01  5.00000000E-01
                       1.66666667E-01  5.00000000E-01  5.00000000E-01
                       5.00000000E-01  5.00000000E-01  5.00000000E-01
         kptrlatt        3    0    0      0    3    0      0    0    3
          kptrlen      2.35500000E+01
            lpawu          -1       2      -1
P           mkmem           8
            natom          24
            nband         120
            ngfft          20      72      30
          ngfftdg          32     120      48
             nkpt           8
           nspden           2
           nsppol           2
            nstep          15
             nsym           8
           ntypat           3
              occ      1.000000  1.000000  1.000000  1.000000  1.000000  1.000000
                       1.000000  1.000000  1.000000  1.000000  1.000000  1.000000
                       1.000000  1.000000  1.000000  1.000000  1.000000  1.000000
                       1.000000  1.000000  1.000000  1.000000  1.000000  1.000000
                       1.000000  1.000000  1.000000  1.000000  1.000000  1.000000
                       1.000000  1.000000  1.000000  1.000000  1.000000  1.000000
                       1.000000  1.000000  1.000000  1.000000  1.000000  1.000000
                       1.000000  1.000000  1.000000  1.000000  1.000000  1.000000
                       1.000000  1.000000  1.000000  1.000000  1.000000  1.000000
                       1.000000  1.000000  1.000000  1.000000  1.000000  1.000000
                       1.000000  1.000000  1.000000  1.000000  1.000000  1.000000
                       1.000000  1.000000  1.000000  1.000000  1.000000  1.000000
                       1.000000  1.000000  1.000000  1.000000  1.000000  1.000000
                       1.000000  1.000000  1.000000  1.000000  1.000000  1.000000
                       1.000000  1.000000  1.000000  1.000000  1.000000  1.000000
                       1.000000  1.000000  1.000000  1.000000  1.000000  1.000000
                       1.000000  1.000000  1.000000  1.000000  1.000000  1.000000
                       1.000000  1.000000  1.000000  1.000000  1.000000  1.000000
                       1.000000  1.000000  1.000000  1.000000  0.000000  0.000000
                       0.000000  0.000000  0.000000  0.000000  0.000000  0.000000
                       1.000000  1.000000  1.000000  1.000000  1.000000  1.000000
                       1.000000  1.000000  1.000000  1.000000  1.000000  1.000000
                       1.000000  1.000000  1.000000  1.000000  1.000000  1.000000
                       1.000000  1.000000  1.000000  1.000000  1.000000  1.000000
                       1.000000  1.000000  1.000000  1.000000  1.000000  1.000000
                       1.000000  1.000000  1.000000  1.000000  1.000000  1.000000
                       1.000000  1.000000  1.000000  1.000000  1.000000  1.000000
                       1.000000  1.000000  1.000000  1.000000  1.000000  1.000000
                       1.000000  1.000000  1.000000  1.000000  1.000000  1.000000
                       1.000000  1.000000  1.000000  1.000000  1.000000  1.000000
                       1.000000  1.000000  1.000000  1.000000  1.000000  1.000000
                       1.000000  1.000000  1.000000  1.000000  1.000000  1.000000
                       1.000000  1.000000  1.000000  1.000000  1.000000  1.000000
                       1.000000  1.000000  1.000000  1.000000  1.000000  1.000000
                       1.000000  1.000000  1.000000  1.000000  1.000000  1.000000
                       1.000000  1.000000  1.000000  1.000000  1.000000  1.000000
                       1.000000  1.000000  1.000000  1.000000  1.000000  1.000000
                       1.000000  1.000000  1.000000  1.000000  1.000000  1.000000
                       1.000000  1.000000  1.000000  1.000000  1.022442  1.022442
                       0.000000  0.000000  0.000000  0.000000  0.000000  0.000000
                       1.000000  1.000000  1.000000  1.000000  1.000000  1.000000
                       1.000000  1.000000  1.000000  1.000000  1.000000  1.000000
                       1.000000  1.000000  1.000000  1.000000  1.000000  1.000000
                       1.000000  1.000000  1.000000  1.000000  1.000000  1.000000
                       1.000000  1.000000  1.000000  1.000000  1.000000  1.000000
                       1.000000  1.000000  1.000000  1.000000  1.000000  1.000000
                       1.000000  1.000000  1.000000  1.000000  1.000000  1.000000
                       1.000000  1.000000  1.000000  1.000000  1.000000  1.000000
                       1.000000  1.000000  1.000000  1.000000  1.000000  1.000000
                       1.000000  1.000000  1.000000  1.000000  1.000000  1.000000
                       1.000000  1.000000  1.000000  1.000000  1.000000  1.000000
                       1.000000  1.000000  1.000000  1.000000  1.000000  1.000000
                       1.000000  1.000000  1.000000  1.000000  1.000000  1.000000
                       1.000000  1.000000  1.000000  1.000000  1.000000  1.000000
                       1.000000  1.000000  1.000000  1.000000  1.000000  1.000000
                       1.000000  1.000000  1.000000  1.000000  1.000000  1.000000
                       1.000000  1.000000  1.000000  1.000000  1.000000  1.000000
                       1.000000  1.000000  1.000000  1.000000  1.000000  1.000000
                       1.000000  1.000000  1.015622  1.015622  0.000000  0.000000
                       0.000000  0.000000  0.000000  0.000000  0.000000  0.000000
                       1.000000  1.000000  1.000000  1.000000  1.000000  1.000000
[...]
                       1.000000  1.000000  1.000000  1.000000  1.000000  1.000000
                       1.000000  1.000000  1.000000  1.000000  1.000000  1.000000
                       1.000000  1.000000  1.000000  1.000000  1.000000  1.000000
                       1.000000  1.000000  1.000000  1.000000  1.000000  1.000000
                       1.000000  1.000000  1.000000  1.000000  1.000000  1.000000
                       1.000000  1.000000  1.000000  1.000000  1.000000  1.000000
                       1.000000  1.000000  1.000000  1.000000  1.000000  1.000000
                       1.000000  1.000000  1.000000  1.000000  1.000000  1.000000
                       1.000000  1.000000  1.000000  1.000000  1.000000  1.000000
                       1.000000  1.000000  1.000000  1.000000  1.000000  1.000000
                       1.000000  1.000000  1.000000  1.000000  1.000000  1.000000
                       1.000000  1.000000  1.000000  1.000000  1.000000  1.000000
                       1.000000  1.000000  1.000000  1.000000  1.000000  1.000000
                       1.000000  1.000000  1.000000  1.000000  0.000000  0.000000
                       0.000000  0.000000  0.000000  0.000000  0.000000  0.000000
           occopt           4
        pawecutdg      2.00000000E+01 Hartree
           prteig           0
           shiftk      5.00000000E-01  5.00000000E-01  5.00000000E-01
           spinat      0.0000000000E+00  0.0000000000E+00  0.0000000000E+00
                       0.0000000000E+00  0.0000000000E+00  0.0000000000E+00
                       0.0000000000E+00  0.0000000000E+00  0.0000000000E+00
                       0.0000000000E+00  0.0000000000E+00  0.0000000000E+00
                       0.0000000000E+00  0.0000000000E+00  2.0000000000E+00
                       0.0000000000E+00  0.0000000000E+00  2.0000000000E+00
                       0.0000000000E+00  0.0000000000E+00  2.0000000000E+00
                       0.0000000000E+00  0.0000000000E+00  2.0000000000E+00
                       0.0000000000E+00  0.0000000000E+00  0.0000000000E+00
                       0.0000000000E+00  0.0000000000E+00  0.0000000000E+00
                       0.0000000000E+00  0.0000000000E+00  0.0000000000E+00
                       0.0000000000E+00  0.0000000000E+00  0.0000000000E+00
                       0.0000000000E+00  0.0000000000E+00  0.0000000000E+00
                       0.0000000000E+00  0.0000000000E+00  0.0000000000E+00
                       0.0000000000E+00  0.0000000000E+00  0.0000000000E+00
                       0.0000000000E+00  0.0000000000E+00  0.0000000000E+00
                       0.0000000000E+00  0.0000000000E+00  0.0000000000E+00
                       0.0000000000E+00  0.0000000000E+00  0.0000000000E+00
                       0.0000000000E+00  0.0000000000E+00  0.0000000000E+00
                       0.0000000000E+00  0.0000000000E+00  0.0000000000E+00
                       0.0000000000E+00  0.0000000000E+00  0.0000000000E+00
                       0.0000000000E+00  0.0000000000E+00  0.0000000000E+00
                       0.0000000000E+00  0.0000000000E+00  0.0000000000E+00
                       0.0000000000E+00  0.0000000000E+00  0.0000000000E+00
           strten      6.5922493285E-02  6.4918355076E-02  6.4867606293E-02
                       0.0000000000E+00  0.0000000000E+00  0.0000000000E+00
           symrel      1  0  0   0  1  0   0  0  1       1  0  0   0  1  0   0  0  1
                       1  0  0   0 -1  0   0  0  1       1  0  0   0 -1  0   0  0  1
                      -1  0  0   0 -1  0   0  0  1      -1  0  0   0 -1  0   0  0  1
                      -1  0  0   0  1  0   0  0  1      -1  0  0   0  1  0   0  0  1
            tnons      0.0000000  0.0000000  0.0000000     0.5000000  0.5000000  0.0000000
                       0.0000000 -0.0000000  0.5000000     0.5000000  0.5000000  0.5000000
                       0.0000000 -0.0000000  0.5000000     0.5000000  0.5000000  0.5000000
                      -0.0000000  0.0000000  0.0000000     0.5000000  0.5000000  0.0000000
           tolvrs      1.00000000E-11
           tsmear      1.83746627E-03 Hartree
            typat      1  1  1  1  2  2  2  2  3  3  3  3  3  3  3  3  3  3  3  3
                       3  3  3  3
          usepawu           1
           useylm           1
              wtk        0.29630    0.14815    0.14815    0.07407    0.14815    0.07407
                         0.07407    0.03704
           xangst      4.4098155387E-16  5.1051540391E+00  2.0966212675E+00
                       8.8053515056E-16  9.3837179321E+00  4.9965123706E+00
                       2.0770205437E+00  1.2349590025E+01  2.0966212675E+00
                       2.0770205437E+00  2.1392819465E+00  4.9965123706E+00
                       1.9213349939E-16  1.2580687533E+00  1.8797094130E+00
                       1.1028191642E-15  1.3230803218E+01  4.7796005161E+00
                       2.0770205437E+00  8.5025047389E+00  1.8797094130E+00
                       2.0770205437E+00  5.9863672323E+00  4.7796005161E+00
                       2.5284844723E-17  4.1293285118E-01  0.0000000000E+00
                       1.0394698073E-15  1.4075939120E+01  2.8998911031E+00
                       2.0770205437E+00  7.6573688368E+00  0.0000000000E+00
                       2.0770205437E+00  6.8315031344E+00  2.8998911031E+00
                       3.5967800978E-16  2.4254371680E+00  3.4485504998E+00
                       7.7226803962E-16  1.2063434803E+01  5.4865939670E-01
                       2.0770205437E+00  9.6698731536E+00  3.4485504998E+00
                       2.0770205437E+00  4.8189988176E+00  5.4865939670E-01
                       2.1989490640E-16  2.8731433119E+00  7.1801303712E-01
                       9.3279098236E-16  1.1615728659E+01  3.6179041402E+00
                       2.0770205437E+00  1.0117579297E+01  7.1801303712E-01
                       2.0770205437E+00  4.3712926737E+00  3.6179041402E+00
                       6.2301075843E-16  8.3644257890E+00  1.8101120265E+00
                       6.6341868351E-16  6.1244461822E+00  4.7100031296E+00
                       2.0770205437E+00  1.1199898034E+00  1.8101120265E+00
                       2.0770205437E+00  1.3368882168E+01  4.7100031296E+00
            xcart      8.3333436647E-16  9.6473430000E+00  3.9620400000E+00
                       1.6639702849E-15  1.7732657000E+01  9.4420400000E+00
                       3.9250000000E+00  2.3337343000E+01  3.9620400000E+00
                       3.9250000000E+00  4.0426570000E+00  9.4420400000E+00
                       3.6307969480E-16  2.3774054000E+00  3.5521360000E+00
                       2.0840261945E-15  2.5002594600E+01  9.0321360000E+00
                       3.9250000000E+00  1.6067405400E+01  3.5521360000E+00
                       3.9250000000E+00  1.1312594600E+01  9.0321360000E+00
                       4.7781431839E-17  7.8033000000E-01  0.0000000000E+00
                       1.9643132592E-15  2.6599670000E+01  5.4800000000E+00
                       3.9250000000E+00  1.4470330000E+01  0.0000000000E+00
                       3.9250000000E+00  1.2909670000E+01  5.4800000000E+00
                       6.7969293450E-16  4.5834120000E+00  6.5168160000E+00
                       1.4593750961E-15  2.2796588000E+01  1.0368160000E+00
                       3.9250000000E+00  1.8273412000E+01  6.5168160000E+00
                       3.9250000000E+00  9.1065880000E+00  1.0368160000E+00
                       4.1554115112E-16  5.4294540000E+00  1.3568480000E+00
                       1.7627194959E-15  2.1950546000E+01  6.8368480000E+00
                       3.9250000000E+00  1.9119454000E+01  1.3568480000E+00
                       3.9250000000E+00  8.2605460000E+00  6.8368480000E+00
                       1.1773197113E-15  1.5806474000E+01  3.4206160000E+00
                       1.2536796233E-15  1.1573526000E+01  8.9006160000E+00
                       3.9250000000E+00  2.1164740000E+00  3.4206160000E+00
                       3.9250000000E+00  2.5263526000E+01  8.9006160000E+00
             xred      1.9329409730E-32  3.5235000000E-01  3.6150000000E-01
                       2.9747378729E-32  6.4765000000E-01  8.6150000000E-01
                       5.0000000000E-01  8.5235000000E-01  3.6150000000E-01
                       5.0000000000E-01  1.4765000000E-01  8.6150000000E-01
                      -3.0651636165E-33  8.6830000000E-02  3.2410000000E-01
                       3.4703656280E-32  9.1317000000E-01  8.2410000000E-01
                       5.0000000000E-01  5.8683000000E-01  3.2410000000E-01
                       5.0000000000E-01  4.1317000000E-01  8.2410000000E-01
                       8.7751490748E-34  2.8500000000E-02  0.0000000000E+00
                       1.0417968999E-32  9.7150000000E-01  5.0000000000E-01
                       5.0000000000E-01  5.2850000000E-01  0.0000000000E+00
                       5.0000000000E-01  4.7150000000E-01  5.0000000000E-01
                       1.0944960169E-32  1.6740000000E-01  5.9460000000E-01
                       2.3446880352E-32  8.3260000000E-01  9.4600000000E-02
                       5.0000000000E-01  6.6740000000E-01  5.9460000000E-01
                       5.0000000000E-01  3.3260000000E-01  9.4600000000E-02
                       7.3471684692E-33  1.9830000000E-01  1.2380000000E-01
                      -7.0780359707E-33  8.0170000000E-01  6.2380000000E-01
                       5.0000000000E-01  6.9830000000E-01  1.2380000000E-01
                       5.0000000000E-01  3.0170000000E-01  6.2380000000E-01
                       2.2408642899E-32  5.7730000000E-01  3.1210000000E-01
                       3.2444071596E-32  4.2270000000E-01  8.1210000000E-01
                       5.0000000000E-01  7.7300000000E-02  3.1210000000E-01
                       5.0000000000E-01  9.2270000000E-01  8.1210000000E-01
            znucl       56.00000   28.00000    9.00000

- Timing analysis has been suppressed with timopt=0

 Suggested references for the acknowledgment of ABINIT usage.

 Calculation completed.
.Delivered   2 WARNINGs and   2 COMMENTs to log file.