.Version 6.2.3  of ABINIT

 ABINIT is a project of the Universite Catholique de Louvain,
 Corning Inc. and other collaborators, see ~abinit/doc/developers/contributors.txt .
 Please read ~abinit/doc/users/acknowledgments.html for suggested
 acknowledgments of the ABINIT effort.

.Starting date : Mon  2 Jan 2012.

- input  file    -> test1.in
- output file    -> test1.out
- root for input  files -> test1i
- root for output files -> test1o

 Symmetries : space group P1 (#  1); Bravais aP (primitive triclinic)
   intxc =         0  ionmov =         2    iscf =         7 xclevel =         1
  lmnmax =         2   lnmax =         2   mband =       109  mffmem =         1
P  mgfft =        72   mkmem =         6 mpssoang=         3     mpw =     17533
  mqgrid =      3001   natom =        42    nfft =    279936    nkpt =         6
  nloalg =         4  nspden =         1 nspinor =         1  nsppol =         1
    nsym =         1  n1xccc =      2501  ntypat =         4  occopt =         1
  Rough estimation (10% accuracy) of disk space for files :

 -outvars: echo values of preprocessed input variables --------
            acell    1.7821483705E+01  1.7821483705E+01  1.3071640063E+01 Bohr
              amu    4.00780000E+01  3.09737620E+01  1.59994000E+01
                     1.89984032E+01
             ecut    1.98446357E+01 Hartree
           ecutsm    5.00000000E-01 Hartree
           ionmov         2
              kpt    2.50000000E-01  2.50000000E-01  1.66666667E-01
                    -2.50000000E-01  2.50000000E-01  1.66666667E-01
                     2.50000000E-01 -2.50000000E-01  1.66666667E-01
                    -2.50000000E-01 -2.50000000E-01  1.66666667E-01
                     2.50000000E-01  2.50000000E-01  5.00000000E-01
                    -2.50000000E-01  2.50000000E-01  5.00000000E-01
          kptrlen    3.56429674E+01
         kptrlatt    2  0  0   0  2  0   0  0  3
P           mkmem         6
            natom        42
            nband       109
            ngfft        72      72      54
             nkpt         6
             nsym         1
           ntypat         4
              occ    2.000000  2.000000  2.000000  2.000000  2.000000  2.000000
                     2.000000  2.000000  2.000000  2.000000  2.000000  2.000000
                     2.000000  2.000000  2.000000  2.000000  2.000000  2.000000
                     2.000000  2.000000  2.000000  2.000000  2.000000  2.000000
                     2.000000  2.000000  2.000000  2.000000  2.000000  2.000000
                     2.000000  2.000000  2.000000  2.000000  2.000000  2.000000
                     2.000000  2.000000  2.000000  2.000000  2.000000  2.000000
                     2.000000  2.000000  2.000000  2.000000  2.000000  2.000000
                     2.000000  2.000000  2.000000  2.000000  2.000000  2.000000
                     2.000000  2.000000  2.000000  2.000000  2.000000  2.000000
                     2.000000  2.000000  2.000000  2.000000  2.000000  2.000000
                     2.000000  2.000000  2.000000  2.000000  2.000000  2.000000
                     2.000000  2.000000  2.000000  2.000000  2.000000  2.000000
                     2.000000  2.000000  2.000000  2.000000  2.000000  2.000000
                     2.000000  2.000000  2.000000  2.000000  2.000000  2.000000
                     2.000000  2.000000  2.000000  2.000000  2.000000  2.000000
                     2.000000  2.000000  2.000000  2.000000  2.000000  2.000000
                     2.000000  0.000000  0.000000  0.000000  0.000000  0.000000
                     0.000000
          optcell         2
           shiftk    5.00000000E-01  5.00000000E-01  5.00000000E-01
          spgroup         1
           toldfe    3.67493254E-08 Hartree
            typat    1  1  1  1  1  1  1  1  1  1  2  2  2  2  2  2  2  3  3  3
                     3  3  3  3  3  3  3  3  3  3  3  3  3  3  3  3  3  3  3  3
                     3  4
              wtk      0.16667    0.16667    0.16667    0.16667    0.16667    0.16667
           xangst    3.1435743333E+00  6.2871486667E+00  4.3578448200E-02
                     1.8201295390E-01  2.3888021359E+00  1.7293035000E+00
                     6.2871486667E+00  3.1435743333E+00  3.5021854482E+00
                     6.2871486667E+00  3.1435743333E+00  6.8736355518E+00
                     3.1435743333E+00  6.2871486667E+00  3.4150285518E+00
                     7.2239338180E+00  1.8201295390E-01  5.1879105000E+00
                     7.0419208641E+00  7.2239338180E+00  1.7293035000E+00
                     9.2487100461E+00  7.0419208641E+00  5.1879105000E+00
                     2.2067891820E+00  9.2487100461E+00  1.7293035000E+00
                     2.3888021359E+00  2.2067891820E+00  5.1879105000E+00
                     3.8364181164E+00  3.4940828715E+00  1.7293035000E+00
                     3.4233524490E-01  3.8364181164E+00  5.1879105000E+00
                     5.9366401285E+00  3.4233524490E-01  1.7293035000E+00
                     5.5943048836E+00  5.9366401285E+00  5.1879105000E+00
                     9.0883877551E+00  5.5943048836E+00  1.7293035000E+00
                     3.4940828715E+00  9.0883877551E+00  5.1879105000E+00
                     2.9046626840E+00  4.6436880052E+00  1.7293035000E+00
                     5.5358344010E+00  4.3541648091E+00  1.7293035000E+00
                     3.2950946162E+00  2.4727355706E+00  5.5268539860E-01
                     7.6916976788E+00  2.9046626840E+00  5.1879105000E+00
                     4.7870349948E+00  7.6916976788E+00  1.7293035000E+00
                     6.5260603160E+00  4.7870349948E+00  5.1879105000E+00
                     1.7390253212E+00  6.5260603160E+00  1.7293035000E+00
                     4.6436880052E+00  1.7390253212E+00  5.1879105000E+00
                     1.1816695919E+00  5.5358344010E+00  5.1879105000E+00
                     5.0765581909E+00  1.1816695919E+00  1.7293035000E+00
                     3.8948885990E+00  5.0765581909E+00  5.1879105000E+00
                     8.2490534081E+00  3.8948885990E+00  1.7293035000E+00
                     4.3541648091E+00  8.2490534081E+00  5.1879105000E+00
                     8.2235904560E-01  3.2950946162E+00  4.0112923986E+00
                     6.9579874294E+00  8.2235904560E-01  5.5268539860E-01
                     6.1356283838E+00  6.9579874294E+00  4.0112923986E+00
                     8.6083639544E+00  6.1356283838E+00  5.5268539860E-01
                     2.4727355706E+00  8.6083639544E+00  4.0112923986E+00
                     6.1356283838E+00  6.9579874294E+00  6.3645286014E+00
                     8.6083639544E+00  6.1356283838E+00  2.9059216014E+00
                     2.4727355706E+00  8.6083639544E+00  6.3645286014E+00
                     3.2950946162E+00  2.4727355706E+00  2.9059216014E+00
                     8.2235904560E-01  3.2950946162E+00  6.3645286014E+00
                     6.9579874294E+00  8.2235904560E-01  2.9059216014E+00
                     0.0000000000E+00  0.0000000000E+00  1.7301335657E+00
                     0.0000000000E+00  0.0000000000E+00  5.1887405657E+00
            xcart    5.9404945684E+00  1.1880989137E+01  8.2351332394E-02
                     3.4395463551E-01  4.5141818225E+00  3.2679100156E+00
                     1.1880989137E+01  5.9404945684E+00  6.6181713637E+00
                     1.1880989137E+01  5.9404945684E+00  1.2989288730E+01
                     5.9404945684E+00  1.1880989137E+01  6.4534686989E+00
                     1.3651256518E+01  3.4395463551E-01  9.8037300469E+00
                     1.3307301883E+01  1.3651256518E+01  3.2679100156E+00
                     1.7477529070E+01  1.3307301883E+01  9.8037300469E+00
                     4.1702271870E+00  1.7477529070E+01  3.2679100156E+00
                     4.5141818225E+00  4.1702271870E+00  9.8037300469E+00
                     7.2497795712E+00  6.6028597127E+00  3.2679100156E+00
                     6.4691985850E-01  7.2497795712E+00  9.8037300469E+00
                     1.1218623992E+01  6.4691985850E-01  3.2679100156E+00
                     1.0571704134E+01  1.1218623992E+01  9.8037300469E+00
                     1.7174563847E+01  1.0571704134E+01  3.2679100156E+00
                     6.6028597127E+00  1.7174563847E+01  9.8037300469E+00
                     5.4890169812E+00  8.7752985764E+00  3.2679100156E+00
                     1.0461210935E+01  8.2281790266E+00  3.2679100156E+00
                     6.2268264066E+00  4.6727930275E+00  1.0444240410E+00
                     1.4535202110E+01  5.4890169812E+00  9.8037300469E+00
                     9.0461851287E+00  1.4535202110E+01  3.2679100156E+00
                     1.2332466724E+01  9.0461851287E+00  9.8037300469E+00
                     3.2862815952E+00  1.2332466724E+01  3.2679100156E+00
                     8.7752985764E+00  3.2862815952E+00  9.8037300469E+00
                     2.2330319082E+00  1.0461210935E+01  9.8037300469E+00
                     9.5933046785E+00  2.2330319082E+00  3.2679100156E+00
                     7.3602727702E+00  9.5933046785E+00  9.8037300469E+00
                     1.5588451797E+01  7.3602727702E+00  3.2679100156E+00
                     8.2281790266E+00  1.5588451797E+01  9.8037300469E+00
                     1.5540333791E+00  6.2268264066E+00  7.5802440723E+00
                     1.3148690678E+01  1.5540333791E+00  1.0444240410E+00
                     1.1594657299E+01  1.3148690678E+01  7.5802440723E+00
                     1.6267450326E+01  1.1594657299E+01  1.0444240410E+00
                     4.6727930275E+00  1.6267450326E+01  7.5802440723E+00
                     1.1594657299E+01  1.3148690678E+01  1.2027216022E+01
                     1.6267450326E+01  1.1594657299E+01  5.4913959903E+00
                     4.6727930275E+00  1.6267450326E+01  1.2027216022E+01
                     6.2268264066E+00  4.6727930275E+00  5.4913959903E+00
                     1.5540333791E+00  6.2268264066E+00  1.2027216022E+01
                     1.3148690678E+01  1.5540333791E+00  5.4913959903E+00
                     0.0000000000E+00  0.0000000000E+00  3.2694786124E+00
                     0.0000000000E+00  0.0000000000E+00  9.8052986437E+00
             xred    3.3333333333E-01  6.6666666667E-01  6.3000000000E-03
                     1.9300000000E-02  2.5330000000E-01  2.5000000000E-01
                     6.6666666667E-01  3.3333333333E-01  5.0630000000E-01
                     6.6666666667E-01  3.3333333333E-01  9.9370000000E-01
                     3.3333333333E-01  6.6666666667E-01  4.9370000000E-01
                     7.6600000000E-01  1.9300000000E-02  7.5000000000E-01
                     7.4670000000E-01  7.6600000000E-01  2.5000000000E-01
                     9.8070000000E-01  7.4670000000E-01  7.5000000000E-01
                     2.3400000000E-01  9.8070000000E-01  2.5000000000E-01
                     2.5330000000E-01  2.3400000000E-01  7.5000000000E-01
                     4.0680000000E-01  3.7050000000E-01  2.5000000000E-01
                     3.6300000000E-02  4.0680000000E-01  7.5000000000E-01
[...]
                     0.0000000000E+00  0.0000000000E+00  0.0000000000E+00
                     0.0000000000E+00  0.0000000000E+00  0.0000000000E+00
                     0.0000000000E+00  0.0000000000E+00  0.0000000000E+00
                     0.0000000000E+00  0.0000000000E+00  0.0000000000E+00
                     0.0000000000E+00  0.0000000000E+00  0.0000000000E+00
                     0.0000000000E+00  0.0000000000E+00  0.0000000000E+00
                     0.0000000000E+00  0.0000000000E+00  0.0000000000E+00
                     0.0000000000E+00  0.0000000000E+00  0.0000000000E+00
                     0.0000000000E+00  0.0000000000E+00  0.0000000000E+00
                     0.0000000000E+00  0.0000000000E+00  0.0000000000E+00
                     0.0000000000E+00  0.0000000000E+00  0.0000000000E+00
                     0.0000000000E+00  0.0000000000E+00  0.0000000000E+00
                     0.0000000000E+00  0.0000000000E+00  0.0000000000E+00
                     0.0000000000E+00  0.0000000000E+00  0.0000000000E+00
                     0.0000000000E+00  0.0000000000E+00  0.0000000000E+00
                     0.0000000000E+00  0.0000000000E+00  0.0000000000E+00
                     0.0000000000E+00  0.0000000000E+00  0.0000000000E+00
                     0.0000000000E+00  0.0000000000E+00  0.0000000000E+00
                     0.0000000000E+00  0.0000000000E+00  0.0000000000E+00
                     0.0000000000E+00  0.0000000000E+00  0.0000000000E+00
                     0.0000000000E+00  0.0000000000E+00  0.0000000000E+00
                     0.0000000000E+00  0.0000000000E+00  0.0000000000E+00
                     0.0000000000E+00  0.0000000000E+00  0.0000000000E+00
                     0.0000000000E+00  0.0000000000E+00  0.0000000000E+00
                     0.0000000000E+00  0.0000000000E+00  0.0000000000E+00
                     0.0000000000E+00  0.0000000000E+00  0.0000000000E+00
                     0.0000000000E+00  0.0000000000E+00  0.0000000000E+00
                     0.0000000000E+00  0.0000000000E+00  0.0000000000E+00
                     0.0000000000E+00  0.0000000000E+00  0.0000000000E+00
                     0.0000000000E+00  0.0000000000E+00  0.0000000000E+00
                     0.0000000000E+00  0.0000000000E+00  0.0000000000E+00
                     0.0000000000E+00  0.0000000000E+00  0.0000000000E+00
           ionmov         2
              kpt    2.50000000E-01  2.50000000E-01  1.66666667E-01
                    -2.50000000E-01  2.50000000E-01  1.66666667E-01
                     2.50000000E-01 -2.50000000E-01  1.66666667E-01
                    -2.50000000E-01 -2.50000000E-01  1.66666667E-01
                     2.50000000E-01  2.50000000E-01  5.00000000E-01
                    -2.50000000E-01  2.50000000E-01  5.00000000E-01
          kptrlen    3.56429674E+01
         kptrlatt    2  0  0   0  2  0   0  0  3
P           mkmem         6
            natom        42
            nband       109
            ngfft        72      72      54
             nkpt         6
             nsym         1
           ntypat         4
              occ    2.000000  2.000000  2.000000  2.000000  2.000000  2.000000
                     2.000000  2.000000  2.000000  2.000000  2.000000  2.000000
                     2.000000  2.000000  2.000000  2.000000  2.000000  2.000000
                     2.000000  2.000000  2.000000  2.000000  2.000000  2.000000
                     2.000000  2.000000  2.000000  2.000000  2.000000  2.000000
                     2.000000  2.000000  2.000000  2.000000  2.000000  2.000000
                     2.000000  2.000000  2.000000  2.000000  2.000000  2.000000
                     2.000000  2.000000  2.000000  2.000000  2.000000  2.000000
                     2.000000  2.000000  2.000000  2.000000  2.000000  2.000000
                     2.000000  2.000000  2.000000  2.000000  2.000000  2.000000
                     2.000000  2.000000  2.000000  2.000000  2.000000  2.000000
                     2.000000  2.000000  2.000000  2.000000  2.000000  2.000000
                     2.000000  2.000000  2.000000  2.000000  2.000000  2.000000
                     2.000000  2.000000  2.000000  2.000000  2.000000  2.000000
                     2.000000  2.000000  2.000000  2.000000  2.000000  2.000000
                     2.000000  2.000000  2.000000  2.000000  2.000000  2.000000
                     2.000000  2.000000  2.000000  2.000000  2.000000  2.000000
                     2.000000  0.000000  0.000000  0.000000  0.000000  0.000000
                     0.000000
          optcell         2
           shiftk    5.00000000E-01  5.00000000E-01  5.00000000E-01
          spgroup         1
           strten    0.0000000000E+00  0.0000000000E+00  0.0000000000E+00
                     0.0000000000E+00  0.0000000000E+00  0.0000000000E+00
           toldfe    3.67493254E-08 Hartree
            typat    1  1  1  1  1  1  1  1  1  1  2  2  2  2  2  2  2  3  3  3
                     3  3  3  3  3  3  3  3  3  3  3  3  3  3  3  3  3  3  3  3
                     3  4
              wtk      0.16667    0.16667    0.16667    0.16667    0.16667    0.16667
           xangst    3.1435743333E+00  6.2871486667E+00  4.3578448200E-02
                     1.8201295390E-01  2.3888021359E+00  1.7293035000E+00
                     6.2871486667E+00  3.1435743333E+00  3.5021854482E+00
                     6.2871486667E+00  3.1435743333E+00  6.8736355518E+00
                     3.1435743333E+00  6.2871486667E+00  3.4150285518E+00
                     7.2239338180E+00  1.8201295390E-01  5.1879105000E+00
                     7.0419208641E+00  7.2239338180E+00  1.7293035000E+00
                     9.2487100461E+00  7.0419208641E+00  5.1879105000E+00
                     2.2067891820E+00  9.2487100461E+00  1.7293035000E+00
                     2.3888021359E+00  2.2067891820E+00  5.1879105000E+00
                     3.8364181164E+00  3.4940828715E+00  1.7293035000E+00
                     3.4233524490E-01  3.8364181164E+00  5.1879105000E+00
                     5.9366401285E+00  3.4233524490E-01  1.7293035000E+00
                     5.5943048836E+00  5.9366401285E+00  5.1879105000E+00
                     9.0883877551E+00  5.5943048836E+00  1.7293035000E+00
                     3.4940828715E+00  9.0883877551E+00  5.1879105000E+00
                     2.9046626840E+00  4.6436880052E+00  1.7293035000E+00
                     5.5358344010E+00  4.3541648091E+00  1.7293035000E+00
                     3.2950946162E+00  2.4727355706E+00  5.5268539860E-01
                     7.6916976788E+00  2.9046626840E+00  5.1879105000E+00
                     4.7870349948E+00  7.6916976788E+00  1.7293035000E+00
                     6.5260603160E+00  4.7870349948E+00  5.1879105000E+00
                     1.7390253212E+00  6.5260603160E+00  1.7293035000E+00
                     4.6436880052E+00  1.7390253212E+00  5.1879105000E+00
                     1.1816695919E+00  5.5358344010E+00  5.1879105000E+00
                     5.0765581909E+00  1.1816695919E+00  1.7293035000E+00
                     3.8948885990E+00  5.0765581909E+00  5.1879105000E+00
                     8.2490534081E+00  3.8948885990E+00  1.7293035000E+00
                     4.3541648091E+00  8.2490534081E+00  5.1879105000E+00
                     8.2235904560E-01  3.2950946162E+00  4.0112923986E+00
                     6.9579874294E+00  8.2235904560E-01  5.5268539860E-01
                     6.1356283838E+00  6.9579874294E+00  4.0112923986E+00
                     8.6083639544E+00  6.1356283838E+00  5.5268539860E-01
                     2.4727355706E+00  8.6083639544E+00  4.0112923986E+00
                     6.1356283838E+00  6.9579874294E+00  6.3645286014E+00
                     8.6083639544E+00  6.1356283838E+00  2.9059216014E+00
                     2.4727355706E+00  8.6083639544E+00  6.3645286014E+00
                     3.2950946162E+00  2.4727355706E+00  2.9059216014E+00
                     8.2235904560E-01  3.2950946162E+00  6.3645286014E+00
                     6.9579874294E+00  8.2235904560E-01  2.9059216014E+00
                     0.0000000000E+00  0.0000000000E+00  1.7301335657E+00
                     0.0000000000E+00  0.0000000000E+00  5.1887405657E+00
            xcart    5.9404945684E+00  1.1880989137E+01  8.2351332394E-02
                     3.4395463551E-01  4.5141818225E+00  3.2679100156E+00
                     1.1880989137E+01  5.9404945684E+00  6.6181713637E+00
                     1.1880989137E+01  5.9404945684E+00  1.2989288730E+01
                     5.9404945684E+00  1.1880989137E+01  6.4534686989E+00
                     1.3651256518E+01  3.4395463551E-01  9.8037300469E+00
                     1.3307301883E+01  1.3651256518E+01  3.2679100156E+00
                     1.7477529070E+01  1.3307301883E+01  9.8037300469E+00
                     4.1702271870E+00  1.7477529070E+01  3.2679100156E+00
                     4.5141818225E+00  4.1702271870E+00  9.8037300469E+00
                     7.2497795712E+00  6.6028597127E+00  3.2679100156E+00
                     6.4691985850E-01  7.2497795712E+00  9.8037300469E+00
                     1.1218623992E+01  6.4691985850E-01  3.2679100156E+00
                     1.0571704134E+01  1.1218623992E+01  9.8037300469E+00
                     1.7174563847E+01  1.0571704134E+01  3.2679100156E+00
                     6.6028597127E+00  1.7174563847E+01  9.8037300469E+00
                     5.4890169812E+00  8.7752985764E+00  3.2679100156E+00
                     1.0461210935E+01  8.2281790266E+00  3.2679100156E+00
                     6.2268264066E+00  4.6727930275E+00  1.0444240410E+00
                     1.4535202110E+01  5.4890169812E+00  9.8037300469E+00
                     9.0461851287E+00  1.4535202110E+01  3.2679100156E+00
                     1.2332466724E+01  9.0461851287E+00  9.8037300469E+00
                     3.2862815952E+00  1.2332466724E+01  3.2679100156E+00
                     8.7752985764E+00  3.2862815952E+00  9.8037300469E+00
                     2.2330319082E+00  1.0461210935E+01  9.8037300469E+00
                     9.5933046785E+00  2.2330319082E+00  3.2679100156E+00
                     7.3602727702E+00  9.5933046785E+00  9.8037300469E+00
                     1.5588451797E+01  7.3602727702E+00  3.2679100156E+00
                     8.2281790266E+00  1.5588451797E+01  9.8037300469E+00
                     1.5540333791E+00  6.2268264066E+00  7.5802440723E+00
                     1.3148690678E+01  1.5540333791E+00  1.0444240410E+00
                     1.1594657299E+01  1.3148690678E+01  7.5802440723E+00
                     1.6267450326E+01  1.1594657299E+01  1.0444240410E+00
                     4.6727930275E+00  1.6267450326E+01  7.5802440723E+00
                     1.1594657299E+01  1.3148690678E+01  1.2027216022E+01
                     1.6267450326E+01  1.1594657299E+01  5.4913959903E+00
                     4.6727930275E+00  1.6267450326E+01  1.2027216022E+01
                     6.2268264066E+00  4.6727930275E+00  5.4913959903E+00
                     1.5540333791E+00  6.2268264066E+00  1.2027216022E+01
                     1.3148690678E+01  1.5540333791E+00  5.4913959903E+00
                     0.0000000000E+00  0.0000000000E+00  3.2694786124E+00
                     0.0000000000E+00  0.0000000000E+00  9.8052986437E+00
             xred    3.3333333333E-01  6.6666666667E-01  6.3000000000E-03
                     1.9300000000E-02  2.5330000000E-01  2.5000000000E-01
                     6.6666666667E-01  3.3333333333E-01  5.0630000000E-01
                     6.6666666667E-01  3.3333333333E-01  9.9370000000E-01
                     3.3333333333E-01  6.6666666667E-01  4.9370000000E-01
                     7.6600000000E-01  1.9300000000E-02  7.5000000000E-01
                     7.4670000000E-01  7.6600000000E-01  2.5000000000E-01
                     9.8070000000E-01  7.4670000000E-01  7.5000000000E-01
                     2.3400000000E-01  9.8070000000E-01  2.5000000000E-01
                     2.5330000000E-01  2.3400000000E-01  7.5000000000E-01
                     4.0680000000E-01  3.7050000000E-01  2.5000000000E-01
                     3.6300000000E-02  4.0680000000E-01  7.5000000000E-01
                     6.2950000000E-01  3.6300000000E-02  2.5000000000E-01
                     5.9320000000E-01  6.2950000000E-01  7.5000000000E-01
                     9.6370000000E-01  5.9320000000E-01  2.5000000000E-01
                     3.7050000000E-01  9.6370000000E-01  7.5000000000E-01
                     3.0800000000E-01  4.9240000000E-01  2.5000000000E-01
                     5.8700000000E-01  4.6170000000E-01  2.5000000000E-01
                     3.4940000000E-01  2.6220000000E-01  7.9900000000E-02
                     8.1560000000E-01  3.0800000000E-01  7.5000000000E-01
                     5.0760000000E-01  8.1560000000E-01  2.5000000000E-01
                     6.9200000000E-01  5.0760000000E-01  7.5000000000E-01
                     1.8440000000E-01  6.9200000000E-01  2.5000000000E-01
                     4.9240000000E-01  1.8440000000E-01  7.5000000000E-01
                     1.2530000000E-01  5.8700000000E-01  7.5000000000E-01
                     5.3830000000E-01  1.2530000000E-01  2.5000000000E-01
                     4.1300000000E-01  5.3830000000E-01  7.5000000000E-01
                     8.7470000000E-01  4.1300000000E-01  2.5000000000E-01
                     4.6170000000E-01  8.7470000000E-01  7.5000000000E-01
                     8.7200000000E-02  3.4940000000E-01  5.7990000000E-01
                     7.3780000000E-01  8.7200000000E-02  7.9900000000E-02
                     6.5060000000E-01  7.3780000000E-01  5.7990000000E-01
                     9.1280000000E-01  6.5060000000E-01  7.9900000000E-02
                     2.6220000000E-01  9.1280000000E-01  5.7990000000E-01
                     6.5060000000E-01  7.3780000000E-01  9.2010000000E-01
                     9.1280000000E-01  6.5060000000E-01  4.2010000000E-01
                     2.6220000000E-01  9.1280000000E-01  9.2010000000E-01
                     3.4940000000E-01  2.6220000000E-01  4.2010000000E-01
                     8.7200000000E-02  3.4940000000E-01  9.2010000000E-01
                     7.3780000000E-01  8.7200000000E-02  4.2010000000E-01
                     0.0000000000E+00  0.0000000000E+00  2.5012000000E-01
                     0.0000000000E+00  0.0000000000E+00  7.5012000000E-01
            znucl     20.00000   15.00000    8.00000    9.00000

- Timing analysis has been suppressed with timopt=0

 Suggested references for the acknowledgment of ABINIT usage.

 [1] ABINIT : First-principles approach of materials and nanosystem properties.
 X. Gonze, B. Amadon, P.-M. Anglade, J.-M. Beuken, F. Bottin, P. Boulanger, F. Bruneval,
 D. Caliste, R. Caracas, M. Cote, T. Deutsch, L. Genovese, Ph. Ghosez, M. Giantomassi
 S. Goedecker, D.R. Hamann, P. Hermet, F. Jollet, G. Jomard, S. Leroux, M. Mancini, S. Mazevet,
 M.J.T. Oliveira, G. Onida, Y. Pouillon, T. Rangel, G.-M. Rignanese, D. Sangalli, R. Shaltaf,
 M. Torrent, M.J. Verstraete, G. Zerah, J.W. Zwanziger
 Computer Phys. Comm. 180, 2582-2615 (2009).
 Comment : the third generic paper describing the ABINIT project.
 Note that a version of this paper, that is not formatted for Computer Phys. Comm.
 The licence allows the authors to put it on the Web.

 [2] A brief introduction to the ABINIT software package.
 X. Gonze, G.-M. Rignanese, M. Verstraete, J.-M. Beuken, Y. Pouillon, R. Caracas, F. Jollet,
 M. Torrent, G. Zerah, M. Mikami, Ph. Ghosez, M. Veithen, J.-Y. Raty, V. Olevano, F. Bruneval,
 L. Reining, R. Godby, G. Onida, D.R. Hamann, and D.C. Allan.
 Z. Kristallogr. 220, 558-562 (2005).
 Comment : the second generic paper describing the ABINIT project. Note that this paper
 should be cited especially if you are using the GW part of ABINIT, as several authors
 of this part are not in the list of authors of the first or third paper.
 Note that it should not redistributed (Copyright by Oldenburg Wissenshaftverlag,
 the licence allows the authors to put it on the Web).

 And optionally :

 [3] First-principles computation of material properties : the ABINIT software project.
 X. Gonze, J.-M. Beuken, R. Caracas, F. Detraux, M. Fuchs, G.-M. Rignanese, L. Sindic,
 M. Verstraete, G. Zerah, F. Jollet, M. Torrent, A. Roy, M. Mikami, Ph. Ghosez, J.-Y. Raty, D.C. Allan.
 Comment : the original paper describing the ABINIT project.

 [4] Fast radix 2, 3, 4 and 5 kernels for Fast Fourier Transformations
 on computers with overlapping multiply-add instructions.
 S. Goedecker, SIAM J. on Scientific Computing 18, 1605 (1997).
-

 Calculation completed.
.Delivered    0 WARNINGs and   2 COMMENTs to log file.