.Version 8.6.3 of ABINIT

 ABINIT is a project of the Universite Catholique de Louvain,
 Corning Inc. and other collaborators, see ~abinit/doc/developers/contributors.txt .
 Please read ~abinit/doc/users/acknowledgments.html for suggested
 acknowledgments of the ABINIT effort.

.Starting date : Fri 29 Dec 2017.
- ( at 10h42 )

- input  file    -> scf.in
- output file    -> scf.out
- root for input  files -> scfi
- root for output files -> scfo

- inpspheads : Reading pseudopotential header in XML form from ../../../Potentials/Mn.LDA_PW-JTH.xml
- inpspheads : Reading pseudopotential header in XML form from ../../../Potentials/P.LDA_PW-JTH.xml
- inpspheads : Reading pseudopotential header in XML form from ../../../Potentials/S.LDA_PW-JTH.xml

 DATASET    1 : magnetic group, Shubnikov type III
 Fedorov space group P-1 (#  2); Bravais aP (primitive triclinic)
 Magnetic point group -1' (#  1)
     intxc =       0    ionmov =       0      iscf =       7    lmnmax =      18
     lnmax =       6     mgfft =     240  mpssoang =       3    mqgrid =   16474
     natom =      10  nloc_mem =       2    nspden =       2   nspinor =       1
    nsppol =       2      nsym =       2    n1xccc =       1    ntypat =       3
    occopt =       3   xclevel =       1
-    mband =          56        mffmem =           1         mkmem =          16
       mpw =       37361          nfft =      864000          nkpt =         512
Pmy_natom=         1
 PAW method is used; the additional fine FFT grid is defined by:
   mgfftf=       360    nfftf =   2304000
  Rough estimation (10% accuracy) of disk space for files :

------------- Echo of variables that govern the present computation ------------
-
- outvars: echo of selected default values
-   iomode0 =  0 , fftalg0 =112 , wfoptalg0 = 10
-
- outvars: echo of global parameters not present in the input file
-  max_nthreads =    0
-
 -outvars: echo values of preprocessed input variables --------
            acell      1.1341716634E+01  1.1341573207E+01  4.7243149714E+01 Bohr
              amu      5.49380500E+01  3.09737620E+01  3.20660000E+01
           diemac      9.00000000E+00
         dmatpawu        1.00000    0.00000    0.00000    0.00000    0.00000
                         0.00000    1.00000    0.00000    0.00000    0.00000
                         0.00000    0.00000    1.00000    0.00000    0.00000
                         0.00000    0.00000    0.00000    1.00000    0.00000
                         0.00000    0.00000    0.00000    0.00000    1.00000
                         0.00000    0.00000    0.00000    0.00000    0.00000
                         0.00000    0.00000    0.00000    0.00000    0.00000
                         0.00000    0.00000    0.00000    0.00000    0.00000
                         0.00000    0.00000    0.00000    0.00000    0.00000
                         0.00000    0.00000    0.00000    0.00000    0.00000
                         0.00000    0.00000    0.00000    0.00000    0.00000
                         0.00000    0.00000    0.00000    0.00000    0.00000
                         0.00000    0.00000    0.00000    0.00000    0.00000
                         0.00000    0.00000    0.00000    0.00000    0.00000
                         0.00000    0.00000    0.00000    0.00000    0.00000
                         1.00000    0.00000    0.00000    0.00000    0.00000
                         0.00000    1.00000    0.00000    0.00000    0.00000
                         0.00000    0.00000    1.00000    0.00000    0.00000
                         0.00000    0.00000    0.00000    1.00000    0.00000
                         0.00000    0.00000    0.00000    0.00000    1.00000
             ecut      2.80000000E+01 Hartree
-          fftalg         112
           irdwfk           1
             iscf           7
           istatr        1000
              ixc       -1012
           jdtset        1
            jpawu      2.93994603E-02  0.00000000E+00  0.00000000E+00 Hartree
              kpt      0.00000000E+00  0.00000000E+00  1.25000000E-01
                       6.25000000E-02  0.00000000E+00  1.25000000E-01
                       1.25000000E-01  0.00000000E+00  1.25000000E-01
                       1.87500000E-01  0.00000000E+00  1.25000000E-01
                       2.50000000E-01  0.00000000E+00  1.25000000E-01
                       3.12500000E-01  0.00000000E+00  1.25000000E-01
                       3.75000000E-01  0.00000000E+00  1.25000000E-01
                       4.37500000E-01  0.00000000E+00  1.25000000E-01
                       5.00000000E-01  0.00000000E+00  1.25000000E-01
                      -4.37500000E-01  0.00000000E+00  1.25000000E-01
                      -3.75000000E-01  0.00000000E+00  1.25000000E-01
                      -3.12500000E-01  0.00000000E+00  1.25000000E-01
                      -2.50000000E-01  0.00000000E+00  1.25000000E-01
                      -1.87500000E-01  0.00000000E+00  1.25000000E-01
                      -1.25000000E-01  0.00000000E+00  1.25000000E-01
                      -6.25000000E-02  0.00000000E+00  1.25000000E-01
                       0.00000000E+00  6.25000000E-02  1.25000000E-01
                       6.25000000E-02  6.25000000E-02  1.25000000E-01
                       1.25000000E-01  6.25000000E-02  1.25000000E-01
                       1.87500000E-01  6.25000000E-02  1.25000000E-01
                       2.50000000E-01  6.25000000E-02  1.25000000E-01
                       3.12500000E-01  6.25000000E-02  1.25000000E-01
                       3.75000000E-01  6.25000000E-02  1.25000000E-01
                       4.37500000E-01  6.25000000E-02  1.25000000E-01
                       5.00000000E-01  6.25000000E-02  1.25000000E-01
                      -4.37500000E-01  6.25000000E-02  1.25000000E-01
                      -3.75000000E-01  6.25000000E-02  1.25000000E-01
                      -3.12500000E-01  6.25000000E-02  1.25000000E-01
                      -2.50000000E-01  6.25000000E-02  1.25000000E-01
                      -1.87500000E-01  6.25000000E-02  1.25000000E-01
                      -1.25000000E-01  6.25000000E-02  1.25000000E-01
                      -6.25000000E-02  6.25000000E-02  1.25000000E-01
                       0.00000000E+00  1.25000000E-01  1.25000000E-01
                       6.25000000E-02  1.25000000E-01  1.25000000E-01
                       1.25000000E-01  1.25000000E-01  1.25000000E-01
                       1.87500000E-01  1.25000000E-01  1.25000000E-01
                       2.50000000E-01  1.25000000E-01  1.25000000E-01
                       3.12500000E-01  1.25000000E-01  1.25000000E-01
                       3.75000000E-01  1.25000000E-01  1.25000000E-01
                       4.37500000E-01  1.25000000E-01  1.25000000E-01
                       5.00000000E-01  1.25000000E-01  1.25000000E-01
                      -4.37500000E-01  1.25000000E-01  1.25000000E-01
                      -3.75000000E-01  1.25000000E-01  1.25000000E-01
                      -3.12500000E-01  1.25000000E-01  1.25000000E-01
                      -2.50000000E-01  1.25000000E-01  1.25000000E-01
                      -1.87500000E-01  1.25000000E-01  1.25000000E-01
                      -1.25000000E-01  1.25000000E-01  1.25000000E-01
                      -6.25000000E-02  1.25000000E-01  1.25000000E-01
                       0.00000000E+00  1.87500000E-01  1.25000000E-01
                       6.25000000E-02  1.87500000E-01  1.25000000E-01
                       outvar_i_n : Printing only first  50 k-points.
         kptrlatt       16    0    0      0   16    0      0    0    4
          kptrlen      1.81457868E+02
            lpawu           2      -1      -1
P           mkmem          16
            natom          10
            nband          56
           nbdbuf           3
           ndtset           1
            ngfft          60      60     240
          ngfftdg          80      80     360
             nkpt         512
            nline          24
           nnsclo           8
           nspden           2
           nsppol           2
            nstep          40
             nsym           2
           ntypat           3
              occ      1.000000  1.000000  1.000000  1.000000  1.000000  1.000000
                       1.000000  1.000000  1.000000  1.000000  1.000000  1.000000
                       1.000000  1.000000  1.000000  1.000000  1.000000  1.000000
                       1.000000  1.000000  1.000000  1.000000  1.000000  1.000000
                       1.000000  1.000000  1.000000  1.000000  1.000000  1.000000
                       1.000000  1.000000  1.000000  1.000000  1.000000  1.000000
                       1.000000  1.000000  0.000000  0.000000  0.000000  0.000000
                       0.000000  0.000000  0.000000  0.000000  0.000000  0.000000
                       0.000000  0.000000  0.000000  0.000000  0.000000  0.000000
                       0.000000  0.000000
                       1.000000  1.000000  1.000000  1.000000  1.000000  1.000000
                       1.000000  1.000000  1.000000  1.000000  1.000000  1.000000
                       1.000000  1.000000  1.000000  1.000000  1.000000  1.000000
                       1.000000  1.000000  1.000000  1.000000  1.000000  1.000000
                       1.000000  1.000000  1.000000  1.000000  1.000000  1.000000
                       1.000000  1.000000  1.000000  1.000000  1.000000  1.000000
                       1.000000  1.000000  0.000000  0.000000  0.000000  0.000000
                       0.000000  0.000000  0.000000  0.000000  0.000000  0.000000
                       0.000000  0.000000  0.000000  0.000000  0.000000  0.000000
                       0.000000  0.000000
                       1.000000  1.000000  1.000000  1.000000  1.000000  1.000000
                       1.000000  1.000000  1.000000  1.000000  1.000000  1.000000
                       1.000000  1.000000  1.000000  1.000000  1.000000  1.000000
                       1.000000  1.000000  1.000000  1.000000  1.000000  1.000000
                       1.000000  1.000000  1.000000  1.000000  1.000000  1.000000
                       1.000000  1.000000  1.000000  1.000000  1.000000  1.000000
                       1.000000  1.000000  0.000000  0.000000  0.000000  0.000000
                       0.000000  0.000000  0.000000  0.000000  0.000000  0.000000
                       0.000000  0.000000  0.000000  0.000000  0.000000  0.000000
                       0.000000  0.000000
                       1.000000  1.000000  1.000000  1.000000  1.000000  1.000000
                       1.000000  1.000000  1.000000  1.000000  1.000000  1.000000
                       1.000000  1.000000  1.000000  1.000000  1.000000  1.000000
                       1.000000  1.000000  1.000000  1.000000  1.000000  1.000000
                       1.000000  1.000000  1.000000  1.000000  1.000000  1.000000
                       1.000000  1.000000  1.000000  1.000000  1.000000  1.000000
                       1.000000  1.000000  0.000000  0.000000  0.000000  0.000000
                       0.000000  0.000000  0.000000  0.000000  0.000000  0.000000
[...]
                       1.000000  1.000000  1.000000  1.000000  1.000000  1.000000
                       1.000000  1.000000  0.000000  0.000000  0.000000  0.000000
                       0.000000  0.000000  0.000000  0.000000  0.000000  0.000000
                       0.000000  0.000000  0.000000  0.000000  0.000000  0.000000
                       0.000000  0.000000
                       1.000000  1.000000  1.000000  1.000000  1.000000  1.000000
                       1.000000  1.000000  1.000000  1.000000  1.000000  1.000000
                       1.000000  1.000000  1.000000  1.000000  1.000000  1.000000
                       1.000000  1.000000  1.000000  1.000000  1.000000  1.000000
                       1.000000  1.000000  1.000000  1.000000  1.000000  1.000000
                       1.000000  1.000000  1.000000  1.000000  1.000000  1.000000
                       1.000000  1.000000  0.000000  0.000000  0.000000  0.000000
                       0.000000  0.000000  0.000000  0.000000  0.000000  0.000000
                       0.000000  0.000000  0.000000  0.000000  0.000000  0.000000
                       0.000000  0.000000
                       1.000000  1.000000  1.000000  1.000000  1.000000  1.000000
                       1.000000  1.000000  1.000000  1.000000  1.000000  1.000000
                       1.000000  1.000000  1.000000  1.000000  1.000000  1.000000
                       1.000000  1.000000  1.000000  1.000000  1.000000  1.000000
                       1.000000  1.000000  1.000000  1.000000  1.000000  1.000000
                       1.000000  1.000000  1.000000  1.000000  1.000000  1.000000
                       1.000000  1.000000  0.000000  0.000000  0.000000  0.000000
                       0.000000  0.000000  0.000000  0.000000  0.000000  0.000000
                       0.000000  0.000000  0.000000  0.000000  0.000000  0.000000
                       0.000000  0.000000
                       1.000000  1.000000  1.000000  1.000000  1.000000  1.000000
                       1.000000  1.000000  1.000000  1.000000  1.000000  1.000000
                       1.000000  1.000000  1.000000  1.000000  1.000000  1.000000
                       1.000000  1.000000  1.000000  1.000000  1.000000  1.000000
                       1.000000  1.000000  1.000000  1.000000  1.000000  1.000000
                       1.000000  1.000000  1.000000  1.000000  1.000000  1.000000
                       1.000000  1.000000  0.000000  0.000000  0.000000  0.000000
                       0.000000  0.000000  0.000000  0.000000  0.000000  0.000000
                       0.000000  0.000000  0.000000  0.000000  0.000000  0.000000
                       0.000000  0.000000
                       1.000000  1.000000  1.000000  1.000000  1.000000  1.000000
                       1.000000  1.000000  1.000000  1.000000  1.000000  1.000000
                       1.000000  1.000000  1.000000  1.000000  1.000000  1.000000
                       1.000000  1.000000  1.000000  1.000000  1.000000  1.000000
                       1.000000  1.000000  1.000000  1.000000  1.000000  1.000000
                       1.000000  1.000000  1.000000  1.000000  1.000000  1.000000
                       1.000000  1.000000  0.000000  0.000000  0.000000  0.000000
                       0.000000  0.000000  0.000000  0.000000  0.000000  0.000000
                       0.000000  0.000000  0.000000  0.000000  0.000000  0.000000
                       0.000000  0.000000
                       1.000000  1.000000  1.000000  1.000000  1.000000  1.000000
                       1.000000  1.000000  1.000000  1.000000  1.000000  1.000000
                       1.000000  1.000000  1.000000  1.000000  1.000000  1.000000
                       1.000000  1.000000  1.000000  1.000000  1.000000  1.000000
                       1.000000  1.000000  1.000000  1.000000  1.000000  1.000000
                       1.000000  1.000000  1.000000  1.000000  1.000000  1.000000
                       1.000000  1.000000  0.000000  0.000000  0.000000  0.000000
                       0.000000  0.000000  0.000000  0.000000  0.000000  0.000000
                       0.000000  0.000000  0.000000  0.000000  0.000000  0.000000
                       0.000000  0.000000
                       1.000000  1.000000  1.000000  1.000000  1.000000  1.000000
[...]
                       1.000000  1.000000  1.000000  1.000000  1.000000  1.000000
                       1.000000  1.000000  0.000000  0.000000  0.000000  0.000000
                       0.000000  0.000000  0.000000  0.000000  0.000000  0.000000
                       0.000000  0.000000  0.000000  0.000000  0.000000  0.000000
                       0.000000  0.000000
                       1.000000  1.000000  1.000000  1.000000  1.000000  1.000000
                       1.000000  1.000000  1.000000  1.000000  1.000000  1.000000
                       1.000000  1.000000  1.000000  1.000000  1.000000  1.000000
                       1.000000  1.000000  1.000000  1.000000  1.000000  1.000000
                       1.000000  1.000000  1.000000  1.000000  1.000000  1.000000
                       1.000000  1.000000  1.000000  1.000000  1.000000  1.000000
                       1.000000  1.000000  0.000000  0.000000  0.000000  0.000000
                       0.000000  0.000000  0.000000  0.000000  0.000000  0.000000
                       0.000000  0.000000  0.000000  0.000000  0.000000  0.000000
                       0.000000  0.000000
                       prtocc : prtvol=0, do not print more k-points.
                       1.000000  1.000000  1.000000  1.000000  1.000000  1.000000
                       1.000000  1.000000  1.000000  1.000000  1.000000  1.000000
                       1.000000  1.000000  1.000000  1.000000  1.000000  1.000000
                       1.000000  1.000000  1.000000  1.000000  1.000000  1.000000
                       1.000000  1.000000  1.000000  1.000000  1.000000  1.000000
                       1.000000  1.000000  1.000000  1.000000  1.000000  1.000000
                       1.000000  1.000000  0.000000  0.000000  0.000000  0.000000
                       0.000000  0.000000  0.000000  0.000000  0.000000  0.000000
                       0.000000  0.000000  0.000000  0.000000  0.000000  0.000000
                       0.000000  0.000000
                       1.000000  1.000000  1.000000  1.000000  1.000000  1.000000
                       1.000000  1.000000  1.000000  1.000000  1.000000  1.000000
                       1.000000  1.000000  1.000000  1.000000  1.000000  1.000000
                       1.000000  1.000000  1.000000  1.000000  1.000000  1.000000
                       1.000000  1.000000  1.000000  1.000000  1.000000  1.000000
                       1.000000  1.000000  1.000000  1.000000  1.000000  1.000000
                       1.000000  1.000000  0.000000  0.000000  0.000000  0.000000
                       0.000000  0.000000  0.000000  0.000000  0.000000  0.000000
                       0.000000  0.000000  0.000000  0.000000  0.000000  0.000000
                       0.000000  0.000000
                       1.000000  1.000000  1.000000  1.000000  1.000000  1.000000
                       1.000000  1.000000  1.000000  1.000000  1.000000  1.000000
                       1.000000  1.000000  1.000000  1.000000  1.000000  1.000000
                       1.000000  1.000000  1.000000  1.000000  1.000000  1.000000
                       1.000000  1.000000  1.000000  1.000000  1.000000  1.000000
                       1.000000  1.000000  1.000000  1.000000  1.000000  1.000000
                       1.000000  1.000000  0.000000  0.000000  0.000000  0.000000
                       0.000000  0.000000  0.000000  0.000000  0.000000  0.000000
                       0.000000  0.000000  0.000000  0.000000  0.000000  0.000000
                       0.000000  0.000000
                       1.000000  1.000000  1.000000  1.000000  1.000000  1.000000
                       1.000000  1.000000  1.000000  1.000000  1.000000  1.000000
                       1.000000  1.000000  1.000000  1.000000  1.000000  1.000000
                       1.000000  1.000000  1.000000  1.000000  1.000000  1.000000
                       1.000000  1.000000  1.000000  1.000000  1.000000  1.000000
                       1.000000  1.000000  1.000000  1.000000  1.000000  1.000000
                       1.000000  1.000000  0.000000  0.000000  0.000000  0.000000
                       0.000000  0.000000  0.000000  0.000000  0.000000  0.000000
                       0.000000  0.000000  0.000000  0.000000  0.000000  0.000000
                       0.000000  0.000000
                       1.000000  1.000000  1.000000  1.000000  1.000000  1.000000
                       1.000000  1.000000  1.000000  1.000000  1.000000  1.000000
                       1.000000  1.000000  1.000000  1.000000  1.000000  1.000000
                       1.000000  1.000000  1.000000  1.000000  1.000000  1.000000
                       1.000000  1.000000  1.000000  1.000000  1.000000  1.000000
                       1.000000  1.000000  1.000000  1.000000  1.000000  1.000000
                       1.000000  1.000000  0.000000  0.000000  0.000000  0.000000
                       0.000000  0.000000  0.000000  0.000000  0.000000  0.000000
                       0.000000  0.000000  0.000000  0.000000  0.000000  0.000000
                       0.000000  0.000000
                       1.000000  1.000000  1.000000  1.000000  1.000000  1.000000
                       1.000000  1.000000  1.000000  1.000000  1.000000  1.000000
                       1.000000  1.000000  1.000000  1.000000  1.000000  1.000000
                       1.000000  1.000000  1.000000  1.000000  1.000000  1.000000
                       1.000000  1.000000  1.000000  1.000000  1.000000  1.000000
                       1.000000  1.000000  1.000000  1.000000  1.000000  1.000000
                       1.000000  1.000000  0.000000  0.000000  0.000000  0.000000
                       0.000000  0.000000  0.000000  0.000000  0.000000  0.000000
                       0.000000  0.000000  0.000000  0.000000  0.000000  0.000000
                       0.000000  0.000000
[...]
                       1.000000  1.000000  1.000000  1.000000  1.000000  1.000000
                       1.000000  1.000000  0.000000  0.000000  0.000000  0.000000
                       0.000000  0.000000  0.000000  0.000000  0.000000  0.000000
                       0.000000  0.000000  0.000000  0.000000  0.000000  0.000000
                       0.000000  0.000000
                       1.000000  1.000000  1.000000  1.000000  1.000000  1.000000
                       1.000000  1.000000  1.000000  1.000000  1.000000  1.000000
                       1.000000  1.000000  1.000000  1.000000  1.000000  1.000000
                       1.000000  1.000000  1.000000  1.000000  1.000000  1.000000
                       1.000000  1.000000  1.000000  1.000000  1.000000  1.000000
                       1.000000  1.000000  1.000000  1.000000  1.000000  1.000000
                       1.000000  1.000000  0.000000  0.000000  0.000000  0.000000
                       0.000000  0.000000  0.000000  0.000000  0.000000  0.000000
                       0.000000  0.000000  0.000000  0.000000  0.000000  0.000000
                       0.000000  0.000000
                       prtocc : prtvol=0, do not print more k-points.
           occopt           3
        pawecutdg      6.00000000E+01 Hartree
        ptgroupma           1
            rprim      1.0000000000E+00  0.0000000000E+00  0.0000000000E+00
                      -5.0004656746E-01  8.6599851638E-01  0.0000000000E+00
                       6.1232339957E-17  1.0606410939E-16  1.0000000000E+00
           shiftk      0.00000000E+00  0.00000000E+00  5.00000000E-01
          spgroup           2
           spinat      0.0000000000E+00  0.0000000000E+00  5.0000000000E+00
                       0.0000000000E+00  0.0000000000E+00 -5.0000000000E+00
                       0.0000000000E+00  0.0000000000E+00  0.0000000000E+00
                       0.0000000000E+00  0.0000000000E+00  0.0000000000E+00
                       0.0000000000E+00  0.0000000000E+00  0.0000000000E+00
                       0.0000000000E+00  0.0000000000E+00  0.0000000000E+00
                       0.0000000000E+00  0.0000000000E+00  0.0000000000E+00
                       0.0000000000E+00  0.0000000000E+00  0.0000000000E+00
                       0.0000000000E+00  0.0000000000E+00  0.0000000000E+00
                       0.0000000000E+00  0.0000000000E+00  0.0000000000E+00
   spinmagntarget      0.00000000E+00
           strten1     5.2873507949E-07  4.8556008686E-07  7.2523681136E-07
                      -1.8731804870E-08 -1.4253279899E-08 -2.6992250949E-08
           symafm        1   -1
           symrel      1  0  0   0  1  0   0  0  1      -1  0  0   0 -1  0   0  0 -1
            tnons      0.0000000  0.0000000  0.0000000     0.0100977  0.0103763  0.0000000
           tolvrs      1.00000000E-18
           tsmear      1.00000000E-04 Hartree
            typat      1  1  2  2  3  3  3  3  3  3
            upawu      2.93994603E-01  0.00000000E+00  0.00000000E+00 Hartree
        usedmatpu           5
          usepawu           1
           useylm           1
              wtk        0.00195    0.00195    0.00195    0.00195    0.00195    0.00195
                         0.00195    0.00195    0.00195    0.00195    0.00195    0.00195
                         0.00195    0.00195    0.00195    0.00195    0.00195    0.00195
                         0.00195    0.00195    0.00195    0.00195    0.00195    0.00195
                         0.00195    0.00195    0.00195    0.00195    0.00195    0.00195
                         0.00195    0.00195    0.00195    0.00195    0.00195    0.00195
                         0.00195    0.00195    0.00195    0.00195    0.00195    0.00195
                         0.00195    0.00195    0.00195    0.00195    0.00195    0.00195
                         0.00195    0.00195
                       outvars : Printing only first  50 k-points.
           xangst     -1.4859362420E+00  4.3581612778E+00  1.2482498411E-04
                       4.5160470228E+00  8.9323448513E-01 -1.2482498411E-04
                       1.5150349423E+00  2.6256186243E+00  1.0964752190E+00
                       1.5150758385E+00  2.6257771386E+00 -1.0964752190E+00
                      -4.3842412057E-01  2.6258641593E+00 -1.6311795918E+00
                       2.4919625711E+00  9.3407697993E-01 -1.6311931202E+00
                       2.4919162944E+00  4.3175112966E+00 -1.6311479066E+00
                       5.3819448642E-01  9.3388446633E-01  1.6311479066E+00
                       3.4685349014E+00  2.6255316037E+00  1.6311795918E+00
                       5.3814820971E-01  4.3173187830E+00  1.6311931202E+00
            xcart     -2.8080125483E+00  8.2357312580E+00  2.3588503451E-04
                       8.5340920763E+00  1.6879685493E+00 -2.3588503451E-04
                       2.8630011228E+00  4.9617001294E+00  2.0720378754E+00
                       2.8630784052E+00  4.9619996780E+00 -2.0720378754E+00
                      -8.2850151793E-01  4.9621641232E+00 -3.0824827021E+00
                       4.7091267928E+00  1.7651496791E+00 -3.0825082670E+00
                       4.7090393424E+00  8.1589139262E+00 -3.0824228257E+00
                       1.0170401856E+00  1.7647858811E+00  3.0824228257E+00
                       6.5545810459E+00  4.9615356842E+00  3.0824827021E+00
                       1.0169527352E+00  8.1585501282E+00  3.0825082670E+00
             xred      1.7170942142E-01  8.3851670337E-01  4.9929997457E-06
                       8.3838827089E-01  1.7185964173E-01 -4.9929997457E-06
                       5.0503781394E-01  5.0517292336E-01  4.3859012110E-02
                       5.0505987836E-01  5.0520342175E-01 -4.3859012110E-02
                       1.7958137383E-01  5.0522016465E-01 -6.5247188655E-02
                       5.0507019165E-01  1.7971779840E-01 -6.5247729791E-02
                       8.3057757313E-01  8.3069558661E-01 -6.5245921247E-02
                       1.7952011918E-01  1.7968075850E-01  6.5245921247E-02
                       8.3051631848E-01  5.0515618046E-01  6.5247188655E-02
                       5.0502750066E-01  8.3065854671E-01  6.5247729791E-02
            znucl       25.00000   15.00000   16.00000

- Timing analysis has been suppressed with timopt=0

 Suggested references for the acknowledgment of ABINIT usage.

 Calculation completed.
.Delivered   3 WARNINGs and   0 COMMENTs to log file.