.Version 9.4.0 of ABINIT

 ABINIT is a project of the Universite Catholique de Louvain,
 Corning Inc. and other collaborators, see ~abinit/doc/developers/contributors.txt .
 acknowledgments of the ABINIT effort.

.Starting date : Tue  4 May 2021.
- ( at 20h46 )

- input  file    -> tdmft_5.abi
- output file    -> tdmft_5.abo
- root for input  files -> tdmft_5i
- root for output files -> tdmft_5o

- inpspheads : Reading pseudopotential header in XML form from
-   ../../../Psps_for_tests/Pseudodojo_paw_pw_standard/V.xml
- inpspheads : Reading pseudopotential header in XML form from
-   ../../../Psps_for_tests/Pseudodojo_paw_pw_standard/Sr.xml
- inpspheads : Reading pseudopotential header in XML form from
-   ../../../Psps_for_tests/Pseudodojo_paw_pw_standard/O.xml

 DATASET    3 : space group Pm -3 m (#221); Bravais cP (primitive cubic)
     intxc =       0    ionmov =       0      iscf =      -2    lmnmax =      18
     lnmax =       6     mgfft =      30  mpssoang =       3    mqgrid =    3001
     natom =       5  nloc_mem =       2    nspden =       1   nspinor =       1
    nsppol =       1      nsym =      48    n1xccc =       1    ntypat =       3
    occopt =       3   xclevel =       1
-    mband =          30        mffmem =           1         mkmem =           8
       mpw =        1659          nfft =       27000          nkpt =         261
Pmy_natom=         1
 PAW method is used; the additional fine FFT grid is defined by:
   mgfftf=        54    nfftf =    157464
  Rough estimation (10% accuracy) of disk space for files :

------------- Echo of variables that govern the present computation ------------
-
- outvars: echo of selected default values
-   iomode0 =  0 , fftalg0 =512 , wfoptalg0 = 10
-
- outvars: echo of global parameters not present in the input file
-  max_nthreads =    0
-
 -outvars: echo values of preprocessed input variables --------
            acell      7.2605000000E+00  7.2605000000E+00  7.2605000000E+00 Bohr
              amu      5.09415000E+01  8.76200000E+01  1.59994000E+01
        dmatpuopt           1
        dmftbandf          23
        dmftbandi          21
        dmft_iter          10
        dmft_mxsf      8.0000000000E-01
        dmft_nwli      100000
        dmft_nwlo        1600
        dmft_rslf           1
             ecut      2.00000000E+01 Hartree
-          fftalg         512
        f4of2_sla      0.00000000E+00  0.00000000E+00  0.00000000E+00
           getden           1
           iatsph3       1    2    3    4    5
             iscf          -2
           istwfk        1    0    0    0    0    0    0    0    0    0
                         0    0    0    0    0    0    0    0    0    0
                         0    0    0    0    0    0    0    0    0    0
                         0    0    0    0    0    0    0    0    0    0
                         0    0    0    0    0    0    0    0    0    0
                         0    0    0    0    0    0    0    0    0    0
                         0    0    0    0    0    0    0    0    0    0
                         0    0    0    0    0    0    0    0    0    0
                         0    0    0    0    0    0    0    0    0    0
                         1    0    0    0    0    0    0    0    0    0
                         0    0    0    0    0    0    0    0    0    0
                         0    0    0    0    0    0    0    0    0    0
                         0    0    0    0    0    0    0    0    0    0
                         0    0    0    0    0    0    0    0    0    0
                         1    0    0    0    0    0    0    0    0    0
                         0    0    0    0    0    0    0    0    0    0
                         0    0    0    0    0    0    0    0    0    0
                         0    0    0    0    0    0    0    0    0    0
                         0    0    0    0    0    0    0    0    0    0
                         1    0    0    0    0    0    0    0    0    0
                         0    0    0    0    0    0    0    0    0    0
                         0    0    0    0    0    0    0    0    0    0
                         0    0    0    0    0    0    0    0    0    0
                         0    0    0    0    0    0    0    0    0    0
                         0    0    0    0    0    0    0    0    0    0
                         0    0    0    0    0    0    0    0    0    0
                         1
              ixc       -1012
           jdtset        3
              kpt      5.00000000E-01  5.00000000E-01  5.00000000E-01
                       4.94444444E-01  4.94444444E-01  4.94444444E-01
                       4.88888889E-01  4.88888889E-01  4.88888889E-01
                       4.83333333E-01  4.83333333E-01  4.83333333E-01
                       4.77777778E-01  4.77777778E-01  4.77777778E-01
                       4.72222222E-01  4.72222222E-01  4.72222222E-01
                       4.66666667E-01  4.66666667E-01  4.66666667E-01
                       4.61111111E-01  4.61111111E-01  4.61111111E-01
                       4.55555556E-01  4.55555556E-01  4.55555556E-01
                       4.50000000E-01  4.50000000E-01  4.50000000E-01
                       4.44444444E-01  4.44444444E-01  4.44444444E-01
                       4.38888889E-01  4.38888889E-01  4.38888889E-01
                       4.33333333E-01  4.33333333E-01  4.33333333E-01
                       4.27777778E-01  4.27777778E-01  4.27777778E-01
                       4.22222222E-01  4.22222222E-01  4.22222222E-01
                       4.16666667E-01  4.16666667E-01  4.16666667E-01
                       4.11111111E-01  4.11111111E-01  4.11111111E-01
                       4.05555556E-01  4.05555556E-01  4.05555556E-01
                       4.00000000E-01  4.00000000E-01  4.00000000E-01
                       3.94444444E-01  3.94444444E-01  3.94444444E-01
                       3.88888889E-01  3.88888889E-01  3.88888889E-01
                       3.83333333E-01  3.83333333E-01  3.83333333E-01
                       3.77777778E-01  3.77777778E-01  3.77777778E-01
                       3.72222222E-01  3.72222222E-01  3.72222222E-01
                       3.66666667E-01  3.66666667E-01  3.66666667E-01
                       3.61111111E-01  3.61111111E-01  3.61111111E-01
                       3.55555556E-01  3.55555556E-01  3.55555556E-01
                       3.50000000E-01  3.50000000E-01  3.50000000E-01
                       3.44444444E-01  3.44444444E-01  3.44444444E-01
                       3.38888889E-01  3.38888889E-01  3.38888889E-01
                       3.33333333E-01  3.33333333E-01  3.33333333E-01
                       3.27777778E-01  3.27777778E-01  3.27777778E-01
                       3.22222222E-01  3.22222222E-01  3.22222222E-01
                       3.16666667E-01  3.16666667E-01  3.16666667E-01
                       3.11111111E-01  3.11111111E-01  3.11111111E-01
                       3.05555556E-01  3.05555556E-01  3.05555556E-01
                       3.00000000E-01  3.00000000E-01  3.00000000E-01
                       2.94444444E-01  2.94444444E-01  2.94444444E-01
                       2.88888889E-01  2.88888889E-01  2.88888889E-01
                       2.83333333E-01  2.83333333E-01  2.83333333E-01
                       2.77777778E-01  2.77777778E-01  2.77777778E-01
                       2.72222222E-01  2.72222222E-01  2.72222222E-01
                       2.66666667E-01  2.66666667E-01  2.66666667E-01
                       2.61111111E-01  2.61111111E-01  2.61111111E-01
                       2.55555556E-01  2.55555556E-01  2.55555556E-01
                       2.50000000E-01  2.50000000E-01  2.50000000E-01
                       2.44444444E-01  2.44444444E-01  2.44444444E-01
                       2.38888889E-01  2.38888889E-01  2.38888889E-01
                       2.33333333E-01  2.33333333E-01  2.33333333E-01
                       2.27777778E-01  2.27777778E-01  2.27777778E-01
                       2.22222222E-01  2.22222222E-01  2.22222222E-01
                       2.16666667E-01  2.16666667E-01  2.16666667E-01
                       2.11111111E-01  2.11111111E-01  2.11111111E-01
                       2.05555556E-01  2.05555556E-01  2.05555556E-01
                       2.00000000E-01  2.00000000E-01  2.00000000E-01
                       1.94444444E-01  1.94444444E-01  1.94444444E-01
                       1.88888889E-01  1.88888889E-01  1.88888889E-01
                       1.83333333E-01  1.83333333E-01  1.83333333E-01
                       1.77777778E-01  1.77777778E-01  1.77777778E-01
                       1.72222222E-01  1.72222222E-01  1.72222222E-01
                       1.66666667E-01  1.66666667E-01  1.66666667E-01
[...]
                       1.00000000E-01  1.00000000E-01  0.00000000E+00
                       9.28571429E-02  9.28571429E-02  0.00000000E+00
                       8.57142857E-02  8.57142857E-02  0.00000000E+00
                       7.85714286E-02  7.85714286E-02  0.00000000E+00
                       7.14285714E-02  7.14285714E-02  0.00000000E+00
                       6.42857143E-02  6.42857143E-02  0.00000000E+00
                       5.71428571E-02  5.71428571E-02  0.00000000E+00
                       5.00000000E-02  5.00000000E-02  0.00000000E+00
                       4.28571429E-02  4.28571429E-02  0.00000000E+00
                       3.57142857E-02  3.57142857E-02  0.00000000E+00
                       2.85714286E-02  2.85714286E-02  0.00000000E+00
                       2.14285714E-02  2.14285714E-02  0.00000000E+00
                       1.42857143E-02  1.42857143E-02  0.00000000E+00
                       7.14285714E-03  7.14285714E-03  0.00000000E+00
                       0.00000000E+00  0.00000000E+00  0.00000000E+00
           kptopt          -4
          kssform           3
            lpawu           2      -1      -1
P           mkmem           8
            natom           5
           natsph        5
            nband          30
         nbandkss          30
           nbdbuf           2
           ndtset           1
            ngfft          30      30      30
          ngfftdg          54      54      54
             nkpt         261
             nsym          48
           ntypat           3
           occopt           3
        optforces           0
        pawecutdg      6.00000000E+01 Hartree
        pawfatbnd           1
        pawprtvol           3
     plowan_bandi          21
     plowan_bandf          23
   plowan_compute           1
     plowan_natom           1
        plowan_nt           1
 plowan_realspace           1
        plowan_it3       0    0    0
     plowan_iatom3       1
       plowan_nbl3       1
     plowan_lcalc3       2
  plowan_projcalc3      -2
           prtvol           4
           shiftk      5.00000000E-01  5.00000000E-01  5.00000000E-01
          spgroup         221
           symrel      1  0  0   0  1  0   0  0  1      -1  0  0   0 -1  0   0  0 -1
                      -1  0  0   0  1  0   0  0 -1       1  0  0   0 -1  0   0  0  1
[...]
  -0.30669   -0.30622   -0.30531    0.09928    0.10171    0.10222    0.16688    0.16933
   0.17346    0.19775    0.20110    0.20209    0.26010    0.26104    0.26347    0.34317
   0.34765    0.42339    0.42358    0.46506    0.53405    0.53473
 kpt# 254, nband= 30, wtk=  1.00000, kpt=  0.0500  0.0500  0.0000 (reduced coord)
  -2.10234   -1.15311   -1.15311   -1.15308   -0.96652   -0.42250   -0.37720   -0.37686
  -0.30673   -0.30637   -0.30566    0.09999    0.10187    0.10226    0.16835    0.17025
   0.17345    0.19929    0.20195    0.20273    0.25935    0.26009    0.26205    0.34265
   0.34611    0.42237    0.42252    0.46375    0.53390    0.53452
 kpt# 255, nband= 30, wtk=  1.00000, kpt=  0.0429  0.0429  0.0000 (reduced coord)
  -2.10234   -1.15311   -1.15310   -1.15308   -0.96654   -0.42250   -0.37710   -0.37685
  -0.30676   -0.30649   -0.30596    0.10062    0.10202    0.10229    0.16965    0.17106
   0.17344    0.20069    0.20270    0.20330    0.25869    0.25924    0.26076    0.34219
   0.34476    0.42148    0.42160    0.46259    0.53360    0.53398
 kpt# 256, nband= 30, wtk=  1.00000, kpt=  0.0357  0.0357  0.0000 (reduced coord)
  -2.10234   -1.15310   -1.15310   -1.15308   -0.96655   -0.42250   -0.37701   -0.37684
  -0.30678   -0.30660   -0.30623    0.10115    0.10213    0.10232    0.17078    0.17176
   0.17343    0.20192    0.20337    0.20379    0.25811    0.25850    0.25962    0.34180
   0.34359    0.42073    0.42082    0.46160    0.53354    0.53371
 kpt# 257, nband= 30, wtk=  1.00000, kpt=  0.0286  0.0286  0.0000 (reduced coord)
  -2.10234   -1.15309   -1.15309   -1.15308   -0.96656   -0.42250   -0.37694   -0.37683
  -0.30681   -0.30669   -0.30645    0.10159    0.10223    0.10234    0.17172    0.17235
   0.17343    0.20297    0.20392    0.20420    0.25764    0.25789    0.25863    0.34147
   0.34262    0.42011    0.42017    0.46078    0.53342    0.53376
 kpt# 258, nband= 30, wtk=  1.00000, kpt=  0.0214  0.0214  0.0000 (reduced coord)
  -2.10234   -1.15309   -1.15309   -1.15308   -0.96657   -0.42250   -0.37688   -0.37682
  -0.30682   -0.30676   -0.30662    0.10194    0.10230    0.10236    0.17246    0.17281
   0.17342    0.20382    0.20436    0.20452    0.25726    0.25741    0.25784    0.34121
   0.34186    0.41962    0.41966    0.46013    0.53328    0.53331
 kpt# 259, nband= 30, wtk=  1.00000, kpt=  0.0143  0.0143  0.0000 (reduced coord)
  -2.10234   -1.15308   -1.15308   -1.15308   -0.96658   -0.42250   -0.37684   -0.37682
  -0.30684   -0.30681   -0.30674    0.10219    0.10235    0.10238    0.17299    0.17315
   0.17342    0.20444    0.20468    0.20475    0.25699    0.25706    0.25725    0.34103
   0.34132    0.41928    0.41929    0.45967    0.53314    0.53324
 kpt# 260, nband= 30, wtk=  1.00000, kpt=  0.0071  0.0071  0.0000 (reduced coord)
  -2.10234   -1.15308   -1.15308   -1.15308   -0.96658   -0.42250   -0.37682   -0.37681
  -0.30684   -0.30684   -0.30682    0.10234    0.10238    0.10238    0.17331    0.17335
   0.17342    0.20482    0.20488    0.20490    0.25683    0.25685    0.25690    0.34091
   0.34099    0.41907    0.41908    0.45939    0.53309    0.53311
 kpt# 261, nband= 30, wtk=  1.00000, kpt=  0.0000  0.0000  0.0000 (reduced coord)
  -2.10234   -1.15308   -1.15308   -1.15308   -0.96658   -0.42250   -0.37681   -0.37681
  -0.30685   -0.30685   -0.30685    0.10239    0.10239    0.10239    0.17342    0.17342
   0.17342    0.20494    0.20494    0.20494    0.25678    0.25678    0.25678    0.34087
   0.34087    0.41900    0.41900    0.45930    0.53307    0.53307
 Total charge density [el/Bohr^3]
      Maximum=    1.9681E+00  at reduced coord.    0.0000    0.0000    0.0000
 Next maximum=    1.9399E+00  at reduced coord.    0.0000    0.0000    0.9815
      Minimum=    5.6281E-03  at reduced coord.    0.5000    0.5000    0.0000
 Next minimum=    5.6281E-03  at reduced coord.    0.5000    0.0000    0.5000
   Integrated=    4.1000E+01

== END DATASET(S) ==============================================================

 -outvars: echo values of variables after computation  --------
            acell      7.2605000000E+00  7.2605000000E+00  7.2605000000E+00 Bohr
              amu      5.09415000E+01  8.76200000E+01  1.59994000E+01
        dmatpuopt           1
        dmftbandf          23
        dmftbandi          21
        dmft_iter          10
        dmft_mxsf      8.0000000000E-01
        dmft_nwli      100000
        dmft_nwlo        1600
        dmft_rslf           1
             ecut      2.00000000E+01 Hartree
-          fftalg         512
        f4of2_sla      0.00000000E+00  0.00000000E+00  0.00000000E+00
           getden           1
           iatsph3       1    2    3    4    5
             iscf          -2
           istwfk        1    0    0    0    0    0    0    0    0    0
                         0    0    0    0    0    0    0    0    0    0
                         0    0    0    0    0    0    0    0    0    0
                         0    0    0    0    0    0    0    0    0    0
                         0    0    0    0    0    0    0    0    0    0
                         0    0    0    0    0    0    0    0    0    0
                         0    0    0    0    0    0    0    0    0    0
                         0    0    0    0    0    0    0    0    0    0
                         0    0    0    0    0    0    0    0    0    0
                         1    0    0    0    0    0    0    0    0    0
                         0    0    0    0    0    0    0    0    0    0
                         0    0    0    0    0    0    0    0    0    0
                         0    0    0    0    0    0    0    0    0    0
                         0    0    0    0    0    0    0    0    0    0
                         1    0    0    0    0    0    0    0    0    0
                         0    0    0    0    0    0    0    0    0    0
                         0    0    0    0    0    0    0    0    0    0
                         0    0    0    0    0    0    0    0    0    0
                         0    0    0    0    0    0    0    0    0    0
                         1    0    0    0    0    0    0    0    0    0
                         0    0    0    0    0    0    0    0    0    0
                         0    0    0    0    0    0    0    0    0    0
                         0    0    0    0    0    0    0    0    0    0
                         0    0    0    0    0    0    0    0    0    0
                         0    0    0    0    0    0    0    0    0    0
                         0    0    0    0    0    0    0    0    0    0
                         1
              ixc       -1012
           jdtset        3
              kpt      5.00000000E-01  5.00000000E-01  5.00000000E-01
                       4.94444444E-01  4.94444444E-01  4.94444444E-01
                       4.88888889E-01  4.88888889E-01  4.88888889E-01
                       4.83333333E-01  4.83333333E-01  4.83333333E-01
                       4.77777778E-01  4.77777778E-01  4.77777778E-01
                       4.72222222E-01  4.72222222E-01  4.72222222E-01
                       4.66666667E-01  4.66666667E-01  4.66666667E-01
                       4.61111111E-01  4.61111111E-01  4.61111111E-01
                       4.55555556E-01  4.55555556E-01  4.55555556E-01
                       4.50000000E-01  4.50000000E-01  4.50000000E-01
                       4.44444444E-01  4.44444444E-01  4.44444444E-01
                       4.38888889E-01  4.38888889E-01  4.38888889E-01
                       4.33333333E-01  4.33333333E-01  4.33333333E-01
                       4.27777778E-01  4.27777778E-01  4.27777778E-01
                       4.22222222E-01  4.22222222E-01  4.22222222E-01
                       4.16666667E-01  4.16666667E-01  4.16666667E-01
                       4.11111111E-01  4.11111111E-01  4.11111111E-01
                       4.05555556E-01  4.05555556E-01  4.05555556E-01
                       4.00000000E-01  4.00000000E-01  4.00000000E-01
                       3.94444444E-01  3.94444444E-01  3.94444444E-01
                       3.88888889E-01  3.88888889E-01  3.88888889E-01
                       3.83333333E-01  3.83333333E-01  3.83333333E-01
                       3.77777778E-01  3.77777778E-01  3.77777778E-01
                       3.72222222E-01  3.72222222E-01  3.72222222E-01
                       3.66666667E-01  3.66666667E-01  3.66666667E-01
                       3.61111111E-01  3.61111111E-01  3.61111111E-01
                       3.55555556E-01  3.55555556E-01  3.55555556E-01
                       3.50000000E-01  3.50000000E-01  3.50000000E-01
                       3.44444444E-01  3.44444444E-01  3.44444444E-01
                       3.38888889E-01  3.38888889E-01  3.38888889E-01
                       3.33333333E-01  3.33333333E-01  3.33333333E-01
                       3.27777778E-01  3.27777778E-01  3.27777778E-01
                       3.22222222E-01  3.22222222E-01  3.22222222E-01
                       3.16666667E-01  3.16666667E-01  3.16666667E-01
                       3.11111111E-01  3.11111111E-01  3.11111111E-01
                       3.05555556E-01  3.05555556E-01  3.05555556E-01
                       3.00000000E-01  3.00000000E-01  3.00000000E-01
                       2.94444444E-01  2.94444444E-01  2.94444444E-01
                       2.88888889E-01  2.88888889E-01  2.88888889E-01
                       2.83333333E-01  2.83333333E-01  2.83333333E-01
                       2.77777778E-01  2.77777778E-01  2.77777778E-01
                       2.72222222E-01  2.72222222E-01  2.72222222E-01
                       2.66666667E-01  2.66666667E-01  2.66666667E-01
                       2.61111111E-01  2.61111111E-01  2.61111111E-01
                       2.55555556E-01  2.55555556E-01  2.55555556E-01
                       2.50000000E-01  2.50000000E-01  2.50000000E-01
                       2.44444444E-01  2.44444444E-01  2.44444444E-01
                       2.38888889E-01  2.38888889E-01  2.38888889E-01
                       2.33333333E-01  2.33333333E-01  2.33333333E-01
                       2.27777778E-01  2.27777778E-01  2.27777778E-01
                       2.22222222E-01  2.22222222E-01  2.22222222E-01
                       2.16666667E-01  2.16666667E-01  2.16666667E-01
                       2.11111111E-01  2.11111111E-01  2.11111111E-01
                       2.05555556E-01  2.05555556E-01  2.05555556E-01
                       2.00000000E-01  2.00000000E-01  2.00000000E-01
                       1.94444444E-01  1.94444444E-01  1.94444444E-01
                       1.88888889E-01  1.88888889E-01  1.88888889E-01
                       1.83333333E-01  1.83333333E-01  1.83333333E-01
                       1.77777778E-01  1.77777778E-01  1.77777778E-01
                       1.72222222E-01  1.72222222E-01  1.72222222E-01
                       1.66666667E-01  1.66666667E-01  1.66666667E-01
[...]
                       1.00000000E-01  1.00000000E-01  0.00000000E+00
                       9.28571429E-02  9.28571429E-02  0.00000000E+00
                       8.57142857E-02  8.57142857E-02  0.00000000E+00
                       7.85714286E-02  7.85714286E-02  0.00000000E+00
                       7.14285714E-02  7.14285714E-02  0.00000000E+00
                       6.42857143E-02  6.42857143E-02  0.00000000E+00
                       5.71428571E-02  5.71428571E-02  0.00000000E+00
                       5.00000000E-02  5.00000000E-02  0.00000000E+00
                       4.28571429E-02  4.28571429E-02  0.00000000E+00
                       3.57142857E-02  3.57142857E-02  0.00000000E+00
                       2.85714286E-02  2.85714286E-02  0.00000000E+00
                       2.14285714E-02  2.14285714E-02  0.00000000E+00
                       1.42857143E-02  1.42857143E-02  0.00000000E+00
                       7.14285714E-03  7.14285714E-03  0.00000000E+00
                       0.00000000E+00  0.00000000E+00  0.00000000E+00
           kptopt          -4
          kssform           3
            lpawu           2      -1      -1
P           mkmem           8
            natom           5
           natsph        5
            nband          30
         nbandkss          30
           nbdbuf           2
           ndtset           1
            ngfft          30      30      30
          ngfftdg          54      54      54
             nkpt         261
             nsym          48
           ntypat           3
           occopt           3
        optforces           0
        pawecutdg      6.00000000E+01 Hartree
        pawfatbnd           1
        pawprtvol           3
     plowan_bandi          21
     plowan_bandf          23
   plowan_compute           1
     plowan_natom           1
        plowan_nt           1
 plowan_realspace           1
        plowan_it3       0    0    0
     plowan_iatom3       1
       plowan_nbl3       1
     plowan_lcalc3       2
  plowan_projcalc3      -2
           prtvol           4
           shiftk      5.00000000E-01  5.00000000E-01  5.00000000E-01
          spgroup         221
           symrel      1  0  0   0  1  0   0  0  1      -1  0  0   0 -1  0   0  0 -1
                      -1  0  0   0  1  0   0  0 -1       1  0  0   0 -1  0   0  0  1
                      -1  0  0   0 -1  0   0  0  1       1  0  0   0  1  0   0  0 -1
                       1  0  0   0 -1  0   0  0 -1      -1  0  0   0  1  0   0  0  1
                       0  1  0   1  0  0   0  0  1       0 -1  0  -1  0  0   0  0 -1
                       0 -1  0   1  0  0   0  0 -1       0  1  0  -1  0  0   0  0  1
                       0 -1  0  -1  0  0   0  0  1       0  1  0   1  0  0   0  0 -1
                       0  1  0  -1  0  0   0  0 -1       0 -1  0   1  0  0   0  0  1
                       0  0  1   1  0  0   0  1  0       0  0 -1  -1  0  0   0 -1  0
                       0  0 -1   1  0  0   0 -1  0       0  0  1  -1  0  0   0  1  0
                       0  0 -1  -1  0  0   0  1  0       0  0  1   1  0  0   0 -1  0
                       0  0  1  -1  0  0   0 -1  0       0  0 -1   1  0  0   0  1  0
                       1  0  0   0  0  1   0  1  0      -1  0  0   0  0 -1   0 -1  0
                      -1  0  0   0  0  1   0 -1  0       1  0  0   0  0 -1   0  1  0
                      -1  0  0   0  0 -1   0  1  0       1  0  0   0  0  1   0 -1  0
                       1  0  0   0  0 -1   0 -1  0      -1  0  0   0  0  1   0  1  0
                       0  1  0   0  0  1   1  0  0       0 -1  0   0  0 -1  -1  0  0
                       0 -1  0   0  0  1  -1  0  0       0  1  0   0  0 -1   1  0  0
                       0 -1  0   0  0 -1   1  0  0       0  1  0   0  0  1  -1  0  0
                       0  1  0   0  0 -1  -1  0  0       0 -1  0   0  0  1   1  0  0
                       0  0  1   0  1  0   1  0  0       0  0 -1   0 -1  0  -1  0  0
                       0  0 -1   0  1  0  -1  0  0       0  0  1   0 -1  0   1  0  0
                       0  0 -1   0 -1  0   1  0  0       0  0  1   0  1  0  -1  0  0
                       0  0  1   0 -1  0  -1  0  0       0  0 -1   0  1  0   1  0  0
           tolwfr      1.00000000E-12
           tsmear      3.80017850E-03 Hartree
            typat      1  2  3  3  3
          usepawu          10
           useylm           1
           xangst      0.0000000000E+00  0.0000000000E+00  0.0000000000E+00
                       1.9210455615E+00  1.9210455615E+00  1.9210455615E+00
                       1.9210455615E+00  0.0000000000E+00  0.0000000000E+00
                       0.0000000000E+00  1.9210455615E+00  0.0000000000E+00
                       0.0000000000E+00  0.0000000000E+00  1.9210455615E+00
            xcart      0.0000000000E+00  0.0000000000E+00  0.0000000000E+00
                       3.6302500000E+00  3.6302500000E+00  3.6302500000E+00
                       3.6302500000E+00  0.0000000000E+00  0.0000000000E+00
                       0.0000000000E+00  3.6302500000E+00  0.0000000000E+00
                       0.0000000000E+00  0.0000000000E+00  3.6302500000E+00
             xred      0.0000000000E+00  0.0000000000E+00  0.0000000000E+00
                       5.0000000000E-01  5.0000000000E-01  5.0000000000E-01
                       5.0000000000E-01  0.0000000000E+00  0.0000000000E+00
                       0.0000000000E+00  5.0000000000E-01  0.0000000000E+00
                       0.0000000000E+00  0.0000000000E+00  5.0000000000E-01
            znucl       23.00000   38.00000    8.00000

- Timing analysis has been suppressed with timopt=0

 Suggested references for the acknowledgment of ABINIT usage.

 Calculation completed.
.Delivered   1 WARNINGs and   0 COMMENTs to log file.