.Version 7.6.4 of ABINIT

 ABINIT is a project of the Universite Catholique de Louvain,
 Corning Inc. and other collaborators, see ~abinit/doc/developers/contributors.txt .
 Please read ~abinit/doc/users/acknowledgments.html for suggested
 acknowledgments of the ABINIT effort.

.Starting date : Tue  8 Jul 2014.
- ( at 15h18 )

- input  file    -> CoO.in
- output file    -> CoO.outC
- root for input  files -> CoOin
- root for output files -> CoOout

 DATASET    1 : space group Fm -3 m (#225); Bravais cF (face-center cubic)
   intxc =         0  ionmov =         0    iscf =        17 xclevel =         2
  lmnmax =        18   lnmax =         6   mband =         9  mffmem =         1
P  mgfft =        30   mkmem =        30 mpssoang=         3     mpw =      1017
  mqgrid =      3001   natom =         2    nfft =     27000    nkpt =        60
  nloalg =         4  nspden =         2 nspinor =         1  nsppol =         2
    nsym =        48  n1xccc =         1  ntypat =         2  occopt =         3
Pmy_natom=         1
 PAW method is used; the additional fine FFT grid is defined by:
   mgfftf=        48    nfftf =    110592
  Rough estimation (10% accuracy) of disk space for files :

------------- Echo of variables that govern the present computation ------------
-
- outvars: echo of selected default values
-   accesswff0 =  0 , fftalg0 =112 , wfoptalg0 = 10
-
- outvars: echo of global parameters not present in the input file
-  max_nthreads =    0
-
 -outvars: echo values of preprocessed input variables --------
            acell      8.0000000000E+00  8.0000000000E+00  8.0000000000E+00 Bohr
              amu      5.89332000E+01  1.59994000E+01
      chksymbreak           0
         dmatpawu        1.00000    0.00000    0.00000    0.00000    0.00000
                         0.00000    1.00000    0.00000    0.00000    0.00000
                         0.00000    0.00000    1.00000    0.00000    0.00000
                         0.00000    0.00000    0.00000    1.00000    0.00000
                         0.00000    0.00000    0.00000    0.00000    1.00000
                         1.00000    0.00000    0.00000    0.00000    0.00000
                         0.00000    1.00000    0.00000    0.00000    0.00000
                         0.00000    0.00000    0.00000    0.00000    0.00000
                         0.00000    0.00000    0.00000    1.00000    0.00000
                         0.00000    0.00000    0.00000    0.00000    0.00000
             ecut      3.00000000E+01 Hartree
           iatsph1       1    2
              ixc          11
           jdtset        1
              kpt      6.25000000E-02  6.25000000E-02  6.25000000E-02
                       1.87500000E-01  6.25000000E-02  6.25000000E-02
                       3.12500000E-01  6.25000000E-02  6.25000000E-02
                       4.37500000E-01  6.25000000E-02  6.25000000E-02
                      -4.37500000E-01  6.25000000E-02  6.25000000E-02
                      -3.12500000E-01  6.25000000E-02  6.25000000E-02
                      -1.87500000E-01  6.25000000E-02  6.25000000E-02
                      -6.25000000E-02  6.25000000E-02  6.25000000E-02
                       1.87500000E-01  1.87500000E-01  6.25000000E-02
                       3.12500000E-01  1.87500000E-01  6.25000000E-02
                       4.37500000E-01  1.87500000E-01  6.25000000E-02
                      -4.37500000E-01  1.87500000E-01  6.25000000E-02
                      -3.12500000E-01  1.87500000E-01  6.25000000E-02
                      -1.87500000E-01  1.87500000E-01  6.25000000E-02
                      -6.25000000E-02  1.87500000E-01  6.25000000E-02
                       3.12500000E-01  3.12500000E-01  6.25000000E-02
                       4.37500000E-01  3.12500000E-01  6.25000000E-02
                      -4.37500000E-01  3.12500000E-01  6.25000000E-02
                      -3.12500000E-01  3.12500000E-01  6.25000000E-02
                      -1.87500000E-01  3.12500000E-01  6.25000000E-02
                      -6.25000000E-02  3.12500000E-01  6.25000000E-02
                       4.37500000E-01  4.37500000E-01  6.25000000E-02
                      -4.37500000E-01  4.37500000E-01  6.25000000E-02
                      -3.12500000E-01  4.37500000E-01  6.25000000E-02
                      -1.87500000E-01  4.37500000E-01  6.25000000E-02
                      -6.25000000E-02  4.37500000E-01  6.25000000E-02
                      -4.37500000E-01 -4.37500000E-01  6.25000000E-02
                      -3.12500000E-01 -4.37500000E-01  6.25000000E-02
                      -1.87500000E-01 -4.37500000E-01  6.25000000E-02
                      -3.12500000E-01 -3.12500000E-01  6.25000000E-02
                      -1.87500000E-01 -3.12500000E-01  6.25000000E-02
                      -1.87500000E-01 -1.87500000E-01  6.25000000E-02
                       1.87500000E-01  1.87500000E-01  1.87500000E-01
                       3.12500000E-01  1.87500000E-01  1.87500000E-01
                       4.37500000E-01  1.87500000E-01  1.87500000E-01
                      -4.37500000E-01  1.87500000E-01  1.87500000E-01
                      -3.12500000E-01  1.87500000E-01  1.87500000E-01
                      -1.87500000E-01  1.87500000E-01  1.87500000E-01
                       3.12500000E-01  3.12500000E-01  1.87500000E-01
                       4.37500000E-01  3.12500000E-01  1.87500000E-01
                      -4.37500000E-01  3.12500000E-01  1.87500000E-01
                      -3.12500000E-01  3.12500000E-01  1.87500000E-01
                      -1.87500000E-01  3.12500000E-01  1.87500000E-01
                       4.37500000E-01  4.37500000E-01  1.87500000E-01
                      -4.37500000E-01  4.37500000E-01  1.87500000E-01
                      -3.12500000E-01  4.37500000E-01  1.87500000E-01
                      -1.87500000E-01  4.37500000E-01  1.87500000E-01
                      -4.37500000E-01 -4.37500000E-01  1.87500000E-01
                      -3.12500000E-01 -4.37500000E-01  1.87500000E-01
                      -3.12500000E-01 -3.12500000E-01  1.87500000E-01
                       outvar_i_n : Printing only first  50 k-points.
           kptopt           4
         kptrlatt        8    0    0      0    8    0      0    0    8
          kptrlen      4.52548340E+01
            lpawu           2      -1
P           mkmem          30
            natom           2
           natsph        2
            nband           9
           ndtset           1
            ngfft          30      30      30
          ngfftdg          48      48      48
             nkpt          60
-           npkpt           4
           nspden           2
           nsppol           2
            nstep        1000
             nsym          48
           ntypat           2
              occ      1.000000  1.000000  1.000000  1.000000  1.000000  1.000000
                       1.000000  1.000000  0.000000
                       1.000000  1.000000  1.000000  1.000000  1.000000  1.000000
                       1.000000  1.000000  0.000000
                       1.000000  1.000000  1.000000  1.000000  1.000000  1.000000
                       1.000000  1.000000  0.000000
                       1.000000  1.000000  1.000000  1.000000  1.000000  1.000000
                       1.000000  1.000000  0.000000
                       1.000000  1.000000  1.000000  1.000000  1.000000  1.000000
                       1.000000  1.000000  0.000000
                       1.000000  1.000000  1.000000  1.000000  1.000000  1.000000
                       1.000000  1.000000  0.000000
                       1.000000  1.000000  1.000000  1.000000  1.000000  1.000000
                       1.000000  1.000000  0.000000
                       1.000000  1.000000  1.000000  1.000000  1.000000  1.000000
                       1.000000  1.000000  0.000000
                       1.000000  1.000000  1.000000  1.000000  1.000000  1.000000
                       1.000000  1.000000  0.000000
                       1.000000  1.000000  1.000000  1.000000  1.000000  1.000000
                       1.000000  1.000000  0.000000
                       1.000000  1.000000  1.000000  1.000000  1.000000  1.000000
                       1.000000  1.000000  0.000000
                       1.000000  1.000000  1.000000  1.000000  1.000000  1.000000
                       1.000000  1.000000  0.000000
                       1.000000  1.000000  1.000000  1.000000  1.000000  1.000000
                       1.000000  1.000000  0.000000
                       1.000000  1.000000  1.000000  1.000000  1.000000  1.000000
                       1.000000  1.000000  0.000000
                       1.000000  1.000000  1.000000  1.000000  1.000000  1.000000
                       1.000000  1.000000  0.000000
                       1.000000  1.000000  1.000000  1.000000  1.000000  1.000000
                       1.000000  1.000000  0.000000
                       1.000000  1.000000  1.000000  1.000000  1.000000  1.000000
                       1.000000  1.000000  0.000000
                       1.000000  1.000000  1.000000  1.000000  1.000000  1.000000
                       1.000000  1.000000  0.000000
                       1.000000  1.000000  1.000000  1.000000  1.000000  1.000000
                       1.000000  1.000000  0.000000
                       1.000000  1.000000  1.000000  1.000000  1.000000  1.000000
                       1.000000  1.000000  0.000000
                       1.000000  1.000000  1.000000  1.000000  1.000000  1.000000
                       1.000000  1.000000  0.000000
                       1.000000  1.000000  1.000000  1.000000  1.000000  1.000000
                       1.000000  1.000000  0.000000
                       1.000000  1.000000  1.000000  1.000000  1.000000  1.000000
                       1.000000  1.000000  0.000000
                       1.000000  1.000000  1.000000  1.000000  1.000000  1.000000
                       1.000000  1.000000  0.000000
                       1.000000  1.000000  1.000000  1.000000  1.000000  1.000000
                       1.000000  1.000000  0.000000
                       1.000000  1.000000  1.000000  1.000000  1.000000  1.000000
                       1.000000  1.000000  0.000000
                       1.000000  1.000000  1.000000  1.000000  1.000000  1.000000
                       1.000000  1.000000  0.000000
                       1.000000  1.000000  1.000000  1.000000  1.000000  1.000000
                       1.000000  1.000000  0.000000
                       1.000000  1.000000  1.000000  1.000000  1.000000  1.000000
                       1.000000  1.000000  0.000000
                       1.000000  1.000000  1.000000  1.000000  1.000000  1.000000
                       1.000000  1.000000  0.000000
                       1.000000  1.000000  1.000000  1.000000  1.000000  1.000000
[...]
                       1.000000  1.000000  0.000000
                       1.000000  1.000000  1.000000  1.000000  1.000000  1.000000
                       1.000000  1.000000  0.000000
                       1.000000  1.000000  1.000000  1.000000  1.000000  1.000000
[...]
                       0.974840  0.865511  0.783029
                       1.000000  0.999512  0.999130  0.998989  0.990812  0.990647
                       0.972579  0.779295  0.704549
                       1.000000  0.999628  0.999176  0.999162  0.990282  0.989952
                       0.971018  0.722975  0.710190
                       1.000000  0.999377  0.998984  0.998881  0.991604  0.990915
                       0.973826  0.790805  0.747883
                       1.000000  0.998743  0.998071  0.997697  0.993265  0.992838
                       0.974163  0.879682  0.836619
                       1.000000  0.997689  0.996633  0.995143  0.994279  0.994240
                       0.956017  0.929443  0.915773
                       1.000000  0.998644  0.996621  0.995628  0.994319  0.994127
                       0.959015  0.929155  0.909835
                       1.000000  0.999155  0.997842  0.996802  0.993632  0.992873
                       0.968731  0.929396  0.852802
                       1.000000  0.999376  0.998838  0.998391  0.992469  0.990553
                       0.973176  0.888941  0.798604
                       1.000000  0.999482  0.999053  0.998995  0.991207  0.989671
                       0.972629  0.857356  0.774126
                       1.000000  0.999449  0.999090  0.998597  0.991539  0.990493
                       0.972155  0.893627  0.735649
                       1.000000  0.999202  0.998757  0.997363  0.992789  0.992317
                       0.969774  0.930122  0.764781
                       1.000000  0.998688  0.997787  0.996412  0.993749  0.993471
                       0.968412  0.924849  0.850630
                       1.000000  0.999285  0.996452  0.996407  0.993959  0.993030
                       0.965682  0.942253  0.931806
                       1.000000  0.999215  0.997697  0.997235  0.992838  0.990921
                       0.974225  0.952733  0.918563
                       1.000000  0.998966  0.998684  0.998368  0.992659  0.988814
                       0.976595  0.947973  0.893235
                       1.000000  0.999273  0.998934  0.998229  0.992233  0.989556
                       0.971091  0.958571  0.814710
                       1.000000  0.999386  0.999048  0.997949  0.992014  0.991028
                       0.968896  0.943572  0.742883
                       1.000000  0.999259  0.998842  0.998312  0.992401  0.991515
                       0.973680  0.872074  0.761336
                       1.000000  0.998834  0.997018  0.995953  0.991599  0.989931
                       0.981994  0.967596  0.966167
                       1.000000  0.998223  0.997559  0.997290  0.992220  0.987582
                       0.984099  0.975035  0.958049
                       1.000000  0.998747  0.998346  0.998280  0.992961  0.988237
                       0.977890  0.967958  0.907152
                       1.000000  0.999353  0.998968  0.998742  0.991712  0.989538
                       0.973372  0.922714  0.801919
                       1.000000  0.999552  0.999143  0.999016  0.990853  0.990061
                       0.971960  0.801539  0.724785
                       1.000000  0.998166  0.997141  0.995810  0.991242  0.987611
                       0.986489  0.976572  0.973980
                       1.000000  0.998851  0.997586  0.997312  0.992137  0.989383
                       0.979882  0.966158  0.945976
                       1.000000  0.999282  0.998788  0.998400  0.992549  0.989630
                       0.974385  0.915457  0.857107
                       1.000000  0.999202  0.996781  0.996182  0.993061  0.991829
                       0.973221  0.954520  0.951614
                       1.000000  0.999302  0.997806  0.997065  0.993388  0.992044
[...]
                       0.972658  0.952599  0.864578
                       1.000000  0.999236  0.998116  0.998022  0.993297  0.989833
                       0.975355  0.917317  0.916300
                       1.000000  0.998883  0.998534  0.997787  0.992015  0.989138
                       0.976930  0.965225  0.914000
                       1.000000  0.998898  0.998239  0.998093  0.992202  0.987517
                       0.977574  0.974011  0.919498
                       1.000000  0.999038  0.998726  0.998087  0.992084  0.988847
                       0.974553  0.965468  0.887821
                       1.000000  0.998275  0.998109  0.997832  0.993288  0.987874
                       0.981521  0.970322  0.939194
                       1.000000  0.998497  0.998263  0.997812  0.992257  0.987549
                       0.980830  0.973889  0.935551
                       1.000000  0.998876  0.998116  0.997912  0.993145  0.988687
                       0.978687  0.953725  0.930842
                       prtocc : prtvol=0, do not print more k-points.
                       1.000000  0.999092  0.998840  0.998840  0.991793  0.991793
                       0.975184  0.783622  0.783622
                       1.000000  0.999392  0.999085  0.998499  0.991411  0.991406
                       0.972557  0.877977  0.710954
                       1.000000  0.999397  0.999062  0.998145  0.991994  0.990364
                       0.968888  0.950410  0.749706
                       1.000000  0.999084  0.998752  0.998292  0.992707  0.988953
                       0.973874  0.963129  0.855225
                       1.000000  0.999462  0.999014  0.998883  0.991699  0.990096
                       0.973001  0.806291  0.790252
                       1.000000  0.999357  0.999003  0.998625  0.991793  0.989707
                       0.973284  0.916863  0.806248
                       1.000000  0.999047  0.998607  0.998243  0.992429  0.988546
                       0.974806  0.966578  0.884564
                       1.000000  0.999190  0.998793  0.998766  0.992249  0.989105
                       0.974816  0.932775  0.844741
                       1.000000  0.999610  0.999160  0.999160  0.990258  0.990258
                       0.971425  0.702961  0.702961
                       1.000000  0.999564  0.999135  0.999059  0.990652  0.989958
                       0.971741  0.817469  0.724670
                       1.000000  0.954432  0.939270  0.939270  0.879736  0.879736
                       0.870952  0.145314  0.021310
                       1.000000  0.984544  0.964731  0.951008  0.871692  0.830215
                       0.825931  0.060091  0.016399
                       1.000000  0.996811  0.976636  0.969686  0.824207  0.779008
                       0.770375  0.017354  0.007557
                       1.000000  0.999013  0.982137  0.978933  0.766763  0.735414
                       0.711509  0.008154  0.003752
                       1.000000  0.999290  0.982903  0.981370  0.740333  0.731903
                       0.685503  0.006902  0.003629
                       1.000000  0.998647  0.978956  0.978600  0.790244  0.742456
                       0.731617  0.009005  0.006081
                       1.000000  0.994675  0.969936  0.968317  0.848471  0.794028
                       0.786489  0.024981  0.012278
                       1.000000  0.973637  0.954637  0.951239  0.888201  0.839282
                       0.838463  0.091891  0.020491
                       1.000000  0.986895  0.965991  0.965583  0.900566  0.788145
                       0.785318  0.053489  0.019045
                       1.000000  0.995191  0.980431  0.970631  0.886980  0.745175
                       0.738569  0.025469  0.013001
                       1.000000  0.998317  0.986487  0.978222  0.835021  0.719496
                       0.711833  0.011578  0.006416
                       1.000000  0.998999  0.988981  0.980851  0.767750  0.741403
                       0.694030  0.007743  0.004223
                       1.000000  0.998696  0.989256  0.978416  0.796412  0.723219
                       0.705321  0.010713  0.003919
                       1.000000  0.996824  0.986391  0.970653  0.850591  0.737569
                       0.734243  0.020284  0.006717
                       1.000000  0.991614  0.974244  0.961548  0.875377  0.790924
                       0.783272  0.037415  0.014364
                       1.000000  0.996056  0.978335  0.976133  0.926785  0.711340
                       0.710644  0.021952  0.015515
                       1.000000  0.997454  0.986651  0.978696  0.907425  0.710243
                       0.704585  0.013988  0.010118
                       1.000000  0.997989  0.993062  0.980627  0.849036  0.736183
                       0.703644  0.009157  0.006542
                       1.000000  0.997939  0.995216  0.979659  0.780324  0.772386
                       0.697811  0.010506  0.004327
                       1.000000  0.998082  0.992423  0.976672  0.816852  0.721754
                       0.704622  0.013880  0.003855
[...]
                       0.826126  0.039233  0.012960
                       1.000000  0.995039  0.981614  0.964393  0.853181  0.771090
                       0.765889  0.026466  0.007602
                       1.000000  0.997733  0.990173  0.973289  0.825433  0.722863
                       0.720621  0.016781  0.003818
                       1.000000  0.998789  0.991254  0.979054  0.773913  0.739807
                       0.698293  0.009711  0.003527
                       1.000000  0.998787  0.989306  0.980378  0.807311  0.729293
                       0.696728  0.007778  0.005496
                       1.000000  0.997604  0.983988  0.977995  0.874524  0.716523
                       0.715575  0.013274  0.010496
                       1.000000  0.996707  0.977456  0.975282  0.862004  0.748307
                       0.741654  0.017917  0.011410
                       1.000000  0.997606  0.989308  0.975986  0.856402  0.717479
                       0.709991  0.015912  0.006351
                       prtocc : prtvol=0, do not print more k-points.
           occopt           3
        optforces           0
        pawecutdg      8.00000000E+01 Hartree
           prtdos           3
            rprim      5.0000000000E-01  5.0000000000E-01  0.0000000000E+00
                       0.0000000000E+00  5.0000000000E-01  5.0000000000E-01
                       5.0000000000E-01  0.0000000000E+00  5.0000000000E-01
           shiftk      5.00000000E-01  5.00000000E-01  5.00000000E-01
          spgroup         225
           spinat      0.0000000000E+00  0.0000000000E+00  3.0000000000E+00
                       0.0000000000E+00  0.0000000000E+00  0.0000000000E+00
           strten1    -4.3535860373E-04 -4.3535860373E-04 -4.3535860373E-04
                       0.0000000000E+00  0.0000000000E+00  0.0000000000E+00
           symrel      1  0  0   0  1  0   0  0  1      -1  0  0   0 -1  0   0  0 -1
                       0 -1  1   0 -1  0   1 -1  0       0  1 -1   0  1  0  -1  1  0
                      -1  0  0  -1  0  1  -1  1  0       1  0  0   1  0 -1   1 -1  0
                       0  1 -1   1  0 -1   0  0 -1       0 -1  1  -1  0  1   0  0  1
                      -1  0  0  -1  1  0  -1  0  1       1  0  0   1 -1  0   1  0 -1
                       0 -1  1   1 -1  0   0 -1  0       0  1 -1  -1  1  0   0  1  0
                       1  0  0   0  0  1   0  1  0      -1  0  0   0  0 -1   0 -1  0
                       0  1 -1   0  0 -1   1  0 -1       0 -1  1   0  0  1  -1  0  1
                      -1  0  1  -1  1  0  -1  0  0       1  0 -1   1 -1  0   1  0  0
                       0 -1  0   1 -1  0   0 -1  1       0  1  0  -1  1  0   0  1 -1
                       1  0 -1   0  0 -1   0  1 -1      -1  0  1   0  0  1   0 -1  1
                       0  1  0   0  0  1   1  0  0       0 -1  0   0  0 -1  -1  0  0
                       1  0 -1   0  1 -1   0  0 -1      -1  0  1   0 -1  1   0  0  1
                       0 -1  0   0 -1  1   1 -1  0       0  1  0   0  1 -1  -1  1  0
                      -1  0  1  -1  0  0  -1  1  0       1  0 -1   1  0  0   1 -1  0
                       0  1  0   1  0  0   0  0  1       0 -1  0  -1  0  0   0  0 -1
                       0  0 -1   0  1 -1   1  0 -1       0  0  1   0 -1  1  -1  0  1
                       1 -1  0   0 -1  1   0 -1  0      -1  1  0   0  1 -1   0  1  0
                       0  0  1   1  0  0   0  1  0       0  0 -1  -1  0  0   0 -1  0
                      -1  1  0  -1  0  0  -1  0  1       1 -1  0   1  0  0   1  0 -1
                       0  0  1   0  1  0   1  0  0       0  0 -1   0 -1  0  -1  0  0
                       1 -1  0   0 -1  0   0 -1  1      -1  1  0   0  1  0   0  1 -1
                       0  0 -1   1  0 -1   0  1 -1       0  0  1  -1  0  1   0 -1  1
                      -1  1  0  -1  0  1  -1  0  0       1 -1  0   1  0 -1   1  0  0
           tolvrs      1.00000000E-06
            typat      1  2
            upawu      2.93994603E-01  0.00000000E+00
        usedmatpu          10
          usepawu           1
           useylm           1
              wtk        0.00391    0.01172    0.01172    0.01172    0.01172    0.01172
                         0.01172    0.01172    0.01172    0.02344    0.02344    0.02344
                         0.02344    0.02344    0.02344    0.01172    0.02344    0.02344
                         0.02344    0.02344    0.02344    0.01172    0.02344    0.02344
                         0.02344    0.02344    0.01172    0.02344    0.02344    0.01172
                         0.02344    0.01172    0.00391    0.01172    0.01172    0.01172
                         0.01172    0.01172    0.01172    0.02344    0.02344    0.02344
                         0.02344    0.01172    0.02344    0.02344    0.02344    0.01172
                         0.02344    0.01172
                       outvars : Printing only first  50 k-points.
           xangst      0.0000000000E+00  0.0000000000E+00  0.0000000000E+00
                       2.1167088344E+00  2.1167088344E+00  2.1167088344E+00
            xcart      0.0000000000E+00  0.0000000000E+00  0.0000000000E+00
                       4.0000000000E+00  4.0000000000E+00  4.0000000000E+00
             xred      0.0000000000E+00  0.0000000000E+00  0.0000000000E+00
                       5.0000000000E-01  5.0000000000E-01  5.0000000000E-01
            znucl       27.00000    8.00000

- Timing analysis has been suppressed with timopt=0

 Suggested references for the acknowledgment of ABINIT usage.

 [1] Gamma and beta cerium: LDA+U calculations of ground-state parameters.
 B. Amadon, F. Jollet and M. Torrent, Phys. Rev. B 77, 155104 (2008).
 Comment : LDA+U calculations, usepawu/=0. Strong suggestion to cite this paper.

 [2] Implementation of the Projector Augmented-Wave Method in the ABINIT code.
 M. Torrent, F. Jollet, F. Bottin, G. Zerah, and X. Gonze Comput. Mat. Science 42, 337, (2008).
 Comment : PAW calculations. Strong suggestion to cite this paper.

 [3] ABINIT : First-principles approach of materials and nanosystem properties.
 X. Gonze, B. Amadon, P.-M. Anglade, J.-M. Beuken, F. Bottin, P. Boulanger, F. Bruneval,
 D. Caliste, R. Caracas, M. Cote, T. Deutsch, L. Genovese, Ph. Ghosez, M. Giantomassi
 S. Goedecker, D.R. Hamann, P. Hermet, F. Jollet, G. Jomard, S. Leroux, M. Mancini, S. Mazevet,
 M.J.T. Oliveira, G. Onida, Y. Pouillon, T. Rangel, G.-M. Rignanese, D. Sangalli, R. Shaltaf,
 M. Torrent, M.J. Verstraete, G. Zerah, J.W. Zwanziger
 Computer Phys. Comm. 180, 2582-2615 (2009).
 Comment : the third generic paper describing the ABINIT project.
 Note that a version of this paper, that is not formatted for Computer Phys. Comm.
 The licence allows the authors to put it on the Web.

 [4] A brief introduction to the ABINIT software package.
 X. Gonze, G.-M. Rignanese, M. Verstraete, J.-M. Beuken, Y. Pouillon, R. Caracas, F. Jollet,
 M. Torrent, G. Zerah, M. Mikami, Ph. Ghosez, M. Veithen, J.-Y. Raty, V. Olevano, F. Bruneval,
 L. Reining, R. Godby, G. Onida, D.R. Hamann, and D.C. Allan.
 Z. Kristallogr. 220, 558-562 (2005).
 Comment : the second generic paper describing the ABINIT project. Note that this paper
 should be cited especially if you are using the GW part of ABINIT, as several authors
 of this part are not in the list of authors of the first or third paper.
 Note that it should not redistributed (Copyright by Oldenburg Wissenshaftverlag,
 the licence allows the authors to put it on the Web).

 And optionally :

 [5] First-principles computation of material properties : the ABINIT software project.
 X. Gonze, J.-M. Beuken, R. Caracas, F. Detraux, M. Fuchs, G.-M. Rignanese, L. Sindic,
 M. Verstraete, G. Zerah, F. Jollet, M. Torrent, A. Roy, M. Mikami, Ph. Ghosez, J.-Y. Raty, D.C. Allan.
 Comment : the original paper describing the ABINIT project.
-

 Calculation completed.
.Delivered    1 WARNINGs and   0 COMMENTs to log file.