.Version 8.10.3 of ABINIT

 ABINIT is a project of the Universite Catholique de Louvain,
 Corning Inc. and other collaborators, see ~abinit/doc/developers/contributors.txt .
 acknowledgments of the ABINIT effort.

.Starting date : Mon 21 Sep 2020.
- ( at 16h59 )

- input  file    -> MnPc.in
- output file    -> MnPc.out
- root for input  files -> MnPci
- root for output files -> MnPco

- inpspheads : Reading pseudopotential header in XML form from Mn.LDA_PW-JTH.xml
- inpspheads : Reading pseudopotential header in XML form from N.LDA_PW-JTH.xml
- inpspheads : Reading pseudopotential header in XML form from C.LDA_PW-JTH.xml
- inpspheads : Reading pseudopotential header in XML form from H.LDA_PW-JTH.xml

 DATASET    1 : space group P1 (#  1); Bravais aP (primitive triclinic)
     intxc =       0    ionmov =       0      iscf =      17    lmnmax =      18
     lnmax =       6     mgfft =     240  mpssoang =       3    mqgrid =   12761
     natom =      57  nloc_mem =       2    nspden =       2   nspinor =       1
    nsppol =       2      nsym =       1    n1xccc =       1    ntypat =       4
    occopt =       3   xclevel =       1
-    mband =         132        mffmem =           1         mkmem =           1
       mpw =        2793          nfft =      648000          nkpt =           1
Pmy_natom=         5
 PAW method is used; the additional fine FFT grid is defined by:
   mgfftf=       288    nfftf =   1036800
  Rough estimation (10% accuracy) of disk space for files :

 DATASET    2 : space group P1 (#  1); Bravais aP (primitive triclinic)
     intxc =       0    ionmov =       0      iscf =      17    lmnmax =      18
     lnmax =       6     mgfft =     240  mpssoang =       3    mqgrid =   12761
     natom =      57  nloc_mem =       2    nspden =       2   nspinor =       1
    nsppol =       2      nsym =       1    n1xccc =       1    ntypat =       4
    occopt =       3   xclevel =       1
-    mband =         132        mffmem =           1         mkmem =           1
       mpw =      399961          nfft =     7776000          nkpt =           1
 PAW method is used; the additional fine FFT grid is defined by:
   mgfftf=       288    nfftf =  12441600
  Rough estimation (10% accuracy) of disk space for files :

------------- Echo of variables that govern the present computation ------------
-
- outvars: echo of selected default values
-   iomode0 =  0 , fftalg0 =112 , wfoptalg0 = 10
-
- outvars: echo of global parameters not present in the input file
-  max_nthreads =    0
-
 -outvars: echo values of preprocessed input variables --------
-          iomode1          1
-          iomode2          0
            acell      4.3678953331E+01  4.3678953331E+01  4.3678953331E+01 Bohr
              amu      5.49380500E+01  1.40067400E+01  1.20110000E+01
                       1.00794000E+00
        autoparal           1
     densfor_pred1          6
     densfor_pred2          2
        dmatpuopt           1
        dmftbandf1          0
        dmftbandf2        132
        dmftbandi1          0
        dmftbandi2          1
        dmft_iter1          0
        dmft_iter2          1
        dmft_mxsf1     3.0000000000E-01
        dmft_mxsf2     7.0000000000E-01
        dmft_nwli1          0
        dmft_nwli2      80000
        dmft_nwlo1          0
        dmft_nwlo2        100
        dmft_rslf1          0
        dmft_rslf2          1
             ecut      2.00000000E+01 Hartree
           ecutsm      5.00000000E-01 Hartree
-          fftalg1        401
-          fftalg2        112
           getwfk          -1
           istwfk        1
              ixc           7
           jdtset        1    2
            jpawu1     0.00000000E+00  0.00000000E+00  0.00000000E+00  0.00000000E+00 Hartree
            jpawu2     3.85867917E-02  0.00000000E+00  0.00000000E+00  0.00000000E+00 Hartree
           kptopt           0
            lpawu           2      -1      -1      -1
P           mkmem           1
            natom          57
            nband         132
           ndtset           2
            ngfft         180     180     240
          ngfftdg         200     216     288
             nkpt           1
            nline1          5
            nline2         10
           nnsclo1          5
           nnsclo2         10
-          npband1         12
-          npband2          1
-           npfft1         12
-           npfft2          1
           nspden           2
           nsppol           2
            nstep1         90
            nstep2          2
             nsym           1
           ntypat           4
              occ      1.000000  1.000000  1.000000  1.000000  1.000000  1.000000
                       1.000000  1.000000  1.000000  1.000000  1.000000  1.000000
                       1.000000  1.000000  1.000000  1.000000  1.000000  1.000000
                       1.000000  1.000000  1.000000  1.000000  1.000000  1.000000
                       1.000000  1.000000  1.000000  1.000000  1.000000  1.000000
                       1.000000  1.000000  1.000000  1.000000  1.000000  1.000000
                       1.000000  1.000000  1.000000  1.000000  1.000000  1.000000
                       1.000000  1.000000  1.000000  1.000000  1.000000  1.000000
                       1.000000  1.000000  1.000000  1.000000  1.000000  1.000000
                       1.000000  1.000000  1.000000  1.000000  1.000000  1.000000
                       1.000000  1.000000  1.000000  1.000000  1.000000  1.000000
                       1.000000  1.000000  1.000000  1.000000  1.000000  1.000000
                       1.000000  1.000000  1.000000  1.000000  1.000000  1.000000
                       1.000000  1.000000  1.000000  1.000000  1.000000  1.000000
                       1.000000  1.000000  1.000000  1.000000  1.000000  1.000000
                       1.000000  1.000000  1.000000  1.000000  1.000000  1.000000
                       1.000000  1.000000  1.000000  1.000000  0.000000  0.000000
                       0.000000  0.000000  0.000000  0.000000  0.000000  0.000000
                       0.000000  0.000000  0.000000  0.000000  0.000000  0.000000
                       0.000000  0.000000  0.000000  0.000000  0.000000  0.000000
                       0.000000  0.000000  0.000000  0.000000  0.000000  0.000000
                       0.000000  0.000000  0.000000  0.000000  0.000000  0.000000
                       1.000000  1.000000  1.000000  1.000000  1.000000  1.000000
                       1.000000  1.000000  1.000000  1.000000  1.000000  1.000000
                       1.000000  1.000000  1.000000  1.000000  1.000000  1.000000
                       1.000000  1.000000  1.000000  1.000000  1.000000  1.000000
                       1.000000  1.000000  1.000000  1.000000  1.000000  1.000000
                       1.000000  1.000000  1.000000  1.000000  1.000000  1.000000
                       1.000000  1.000000  1.000000  1.000000  1.000000  1.000000
                       1.000000  1.000000  1.000000  1.000000  1.000000  1.000000
                       1.000000  1.000000  1.000000  1.000000  1.000000  1.000000
                       1.000000  1.000000  1.000000  1.000000  1.000000  1.000000
                       1.000000  1.000000  1.000000  1.000000  1.000000  1.000000
                       1.000000  1.000000  1.000000  1.000000  1.000000  1.000000
                       1.000000  1.000000  1.000000  1.000000  1.000000  1.000000
                       1.000000  1.000000  1.000000  1.000000  1.000000  1.000000
                       1.000000  1.000000  1.000000  1.000000  1.000000  1.000000
                       1.000000  1.000000  1.000000  1.000000  1.000000  1.000000
                       1.000000  1.000000  1.000000  0.000000  0.000000  0.000000
                       0.000000  0.000000  0.000000  0.000000  0.000000  0.000000
                       0.000000  0.000000  0.000000  0.000000  0.000000  0.000000
                       0.000000  0.000000  0.000000  0.000000  0.000000  0.000000
                       0.000000  0.000000  0.000000  0.000000  0.000000  0.000000
                       0.000000  0.000000  0.000000  0.000000  0.000000  0.000000
           occopt           3
        optforces1          2
        optforces2          0
-      paral_atom1          1
-      paral_atom2          0
        paral_kgb1          1
        paral_kgb2          0
        pawecutdg      2.50000000E+01 Hartree
         pawmixdg1          1
         pawmixdg2          0
          pawovlp      1.0000000000E+01
        pawprtvol           3
           prtvol           4
            rprim      1.0000000000E+00  0.0000000000E+00  0.0000000000E+00
                       5.0000000000E-01  8.6602540378E-01  0.0000000000E+00
                       0.0000000000E+00  0.0000000000E+00  1.2979199060E+00
          spgroup           1
           spinat      0.0000000000E+00  0.0000000000E+00  3.4000000000E+00
                       0.0000000000E+00  0.0000000000E+00  0.0000000000E+00
                       0.0000000000E+00  0.0000000000E+00  0.0000000000E+00
                       0.0000000000E+00  0.0000000000E+00  0.0000000000E+00
                       0.0000000000E+00  0.0000000000E+00  0.0000000000E+00
                       0.0000000000E+00  0.0000000000E+00  0.0000000000E+00
                       0.0000000000E+00  0.0000000000E+00  0.0000000000E+00
                       0.0000000000E+00  0.0000000000E+00  0.0000000000E+00
                       0.0000000000E+00  0.0000000000E+00  0.0000000000E+00
                       0.0000000000E+00  0.0000000000E+00  0.0000000000E+00
                       0.0000000000E+00  0.0000000000E+00  0.0000000000E+00
                       0.0000000000E+00  0.0000000000E+00  0.0000000000E+00
                       0.0000000000E+00  0.0000000000E+00  0.0000000000E+00
                       0.0000000000E+00  0.0000000000E+00  0.0000000000E+00
                       0.0000000000E+00  0.0000000000E+00  0.0000000000E+00
                       0.0000000000E+00  0.0000000000E+00  0.0000000000E+00
                       0.0000000000E+00  0.0000000000E+00  0.0000000000E+00
                       0.0000000000E+00  0.0000000000E+00  0.0000000000E+00
                       0.0000000000E+00  0.0000000000E+00  0.0000000000E+00
                       0.0000000000E+00  0.0000000000E+00  0.0000000000E+00
                       0.0000000000E+00  0.0000000000E+00  0.0000000000E+00
                       0.0000000000E+00  0.0000000000E+00  0.0000000000E+00
                       0.0000000000E+00  0.0000000000E+00  0.0000000000E+00
                       0.0000000000E+00  0.0000000000E+00  0.0000000000E+00
                       0.0000000000E+00  0.0000000000E+00  0.0000000000E+00
                       0.0000000000E+00  0.0000000000E+00  0.0000000000E+00
                       0.0000000000E+00  0.0000000000E+00  0.0000000000E+00
                       0.0000000000E+00  0.0000000000E+00  0.0000000000E+00
                       0.0000000000E+00  0.0000000000E+00  0.0000000000E+00
                       0.0000000000E+00  0.0000000000E+00  0.0000000000E+00
[...]
                       0.0000000000E+00  0.0000000000E+00  0.0000000000E+00
                       0.0000000000E+00  0.0000000000E+00  0.0000000000E+00
                       0.0000000000E+00  0.0000000000E+00  0.0000000000E+00
                       0.0000000000E+00  0.0000000000E+00  0.0000000000E+00
                       0.0000000000E+00  0.0000000000E+00  0.0000000000E+00
                       0.0000000000E+00  0.0000000000E+00  0.0000000000E+00
                       0.0000000000E+00  0.0000000000E+00  0.0000000000E+00
                       0.0000000000E+00  0.0000000000E+00  0.0000000000E+00
                       0.0000000000E+00  0.0000000000E+00  0.0000000000E+00
                       0.0000000000E+00  0.0000000000E+00  0.0000000000E+00
                       0.0000000000E+00  0.0000000000E+00  0.0000000000E+00
                       0.0000000000E+00  0.0000000000E+00  0.0000000000E+00
                       0.0000000000E+00  0.0000000000E+00  0.0000000000E+00
                       0.0000000000E+00  0.0000000000E+00  0.0000000000E+00
                       0.0000000000E+00  0.0000000000E+00  0.0000000000E+00
                       0.0000000000E+00  0.0000000000E+00  0.0000000000E+00
                       0.0000000000E+00  0.0000000000E+00  0.0000000000E+00
                       0.0000000000E+00  0.0000000000E+00  0.0000000000E+00
                       0.0000000000E+00  0.0000000000E+00  0.0000000000E+00
                       0.0000000000E+00  0.0000000000E+00  0.0000000000E+00
                       0.0000000000E+00  0.0000000000E+00  0.0000000000E+00
                       0.0000000000E+00  0.0000000000E+00  0.0000000000E+00
                       0.0000000000E+00  0.0000000000E+00  0.0000000000E+00
                       0.0000000000E+00  0.0000000000E+00  0.0000000000E+00
                       0.0000000000E+00  0.0000000000E+00  0.0000000000E+00
                       0.0000000000E+00  0.0000000000E+00  0.0000000000E+00
                       0.0000000000E+00  0.0000000000E+00  0.0000000000E+00
                       0.0000000000E+00  0.0000000000E+00  0.0000000000E+00
                       0.0000000000E+00  0.0000000000E+00  0.0000000000E+00
                       0.0000000000E+00  0.0000000000E+00  0.0000000000E+00
                       0.0000000000E+00  0.0000000000E+00  0.0000000000E+00
                       0.0000000000E+00  0.0000000000E+00  0.0000000000E+00
                       0.0000000000E+00  0.0000000000E+00  0.0000000000E+00
           strten1     7.4981741709E-06  8.7123309736E-06 -2.6784910343E-06
                       2.5648332929E-09 -9.8060411912E-09 -1.2051102573E-07
           strten2     4.1412017737E-05  4.2988445402E-05  2.7307998706E-05
                       1.1022148275E-08 -8.9760249736E-09 -1.4973437090E-07
           tolvrs      1.00000000E-07
           tsmear      3.80017850E-03 Hartree
            typat      1  2  2  2  2  2  2  2  2  3  3  3  3  3  3  3  3  3  3  3
                       3  3  3  3  3  3  3  3  3  3  3  3  3  3  3  3  3  3  3  3
                       3  4  4  4  4  4  4  4  4  4  4  4  4  4  4  4  4
            upawu1     0.00000000E+00  0.00000000E+00  0.00000000E+00  0.00000000E+00 Hartree
            upawu2     1.02898111E-01  0.00000000E+00  0.00000000E+00  0.00000000E+00 Hartree
          usedmft1          0
          usedmft2          1
          usepawu1          1
          usepawu2         10
           useylm           1
         wfoptalg1        114
         wfoptalg2         10
           xangst      1.7308155539E+01  1.0008615147E+01  2.6631809537E+01
                       1.7139285337E+01  1.1941879249E+01  2.6628749537E+01
                       1.9481925998E+01  1.2596682886E+01  2.6625209537E+01
                       1.9248845364E+01  1.0170474471E+01  2.6623919537E+01
                       1.9892463650E+01  7.8199111696E+00  2.6614169537E+01
                       1.7472333617E+01  8.0686252560E+00  2.6625569537E+01
                       1.5128814627E+01  7.4139817564E+00  2.6628359537E+01
                       1.4719837164E+01  1.2189892732E+01  2.6623139537E+01
                       1.5360693338E+01  9.8390692066E+00  2.6627729537E+01
                       1.5947127819E+01  1.2669005139E+01  2.6625539537E+01
                       1.6249399933E+01  1.4092650575E+01  2.6624219537E+01
                       1.5429642122E+01  1.5222182846E+01  2.6619809537E+01
                       1.6050527881E+01  1.6473740153E+01  2.6618339537E+01
                       1.7453125961E+01  1.6591881846E+01  2.6620409537E+01
                       1.8273172696E+01  1.5460968386E+01  2.6625299537E+01
                       1.7652414063E+01  1.4211232647E+01  2.6627309537E+01
                       1.8191072100E+01  1.2859769344E+01  2.6628539537E+01
                       1.9968323492E+01  1.1362480518E+01  2.6621609537E+01
                       2.1382871462E+01  1.1063623270E+01  2.6612969537E+01
                       2.2514424316E+01  1.1886911935E+01  2.6607659537E+01
                       2.3762586829E+01  1.1269640604E+01  2.6602049537E+01
                       2.3884200649E+01  9.8624493316E+00  2.6600969537E+01
                       2.2761026586E+01  9.0393808563E+00  2.6604749537E+01
                       2.1504404383E+01  9.6552509808E+00  2.6610839537E+01
                       2.0161590422E+01  9.1188492606E+00  2.6616809537E+01
                       1.8664572033E+01  7.3415193828E+00  2.6618429537E+01
                       1.8361733629E+01  5.9183343433E+00  2.6613629537E+01
                       1.9182624022E+01  4.7899230371E+00  2.6607179537E+01
                       1.8563414021E+01  3.5376651272E+00  2.6602589537E+01
                       1.6958580815E+01  5.7992318230E+00  2.6615999537E+01
                       1.7160735042E+01  3.4187827964E+00  2.6603189537E+01
                       1.6339417042E+01  4.5486953949E+00  2.6609669537E+01
                       1.6419969007E+01  7.1509353331E+00  2.6623829537E+01
                       1.4640579578E+01  8.6474835216E+00  2.6630999537E+01
                       1.3225211065E+01  8.9470814074E+00  2.6633369537E+01
                       1.2090722744E+01  8.1270755684E+00  2.6639939536E+01
                       1.0844155090E+01  8.7483903795E+00  2.6640419536E+01
                       1.0725615420E+01  1.0155621686E+01  2.6632679537E+01
                       1.1851008419E+01  1.0975127095E+01  2.6626139537E+01
                       1.3105850851E+01  1.0355974144E+01  2.6627909537E+01
                       1.4449427571E+01  1.0891214865E+01  2.6625419537E+01
                       1.5439199722E+01  1.7377297911E+01  2.6614949537E+01
                       1.7904448101E+01  1.7585136814E+01  2.6618129537E+01
                       1.9360300622E+01  1.5539856291E+01  2.6627699537E+01
                       2.2409440952E+01  1.2972005954E+01  2.6608019537E+01
                       2.4666433033E+01  1.1880446369E+01  2.6598389537E+01
                       2.4879647265E+01  9.4160250616E+00  2.6596439537E+01
                       2.2845750610E+01  7.9528255787E+00  2.6602829537E+01
                       2.0267891278E+01  4.8929317042E+00  2.6605049537E+01
                       1.9174938648E+01  2.6342875240E+00  2.6597579537E+01
                       1.6710372129E+01  2.4252275708E+00  2.6597969537E+01
                       1.5252346901E+01  4.4673854054E+00  2.6609159537E+01
                       1.2190135656E+01  7.0415011351E+00  2.6644799536E+01
                       9.9377779139E+00  8.1412477675E+00  2.6646449536E+01
                       1.4344085941E+01  1.5122036643E+01  2.6616899537E+01
                       9.7315094114E+00  1.0604568128E+01  2.6631029537E+01
                       1.1769485670E+01  1.2061782458E+01  2.6620499537E+01
            xcart      3.2707673833E+01  1.8913541598E+01  5.0326826447E+01
                       3.2388555400E+01  2.2566881293E+01  5.0321043885E+01
                       3.6815504678E+01  2.3804280838E+01  5.0314354255E+01
                       3.6375046113E+01  1.9219411392E+01  5.0311916508E+01
                       3.7591308408E+01  1.4777490494E+01  5.0293491679E+01
                       3.3017925439E+01  1.5247492003E+01  5.0315034556E+01
                       2.8589316361E+01  1.4010395074E+01  5.0320306892E+01
                       2.7816460960E+01  2.3035558853E+01  5.0310442522E+01
                       2.9027503620E+01  1.8593146203E+01  5.0319116365E+01
                       3.0135704185E+01  2.3940950090E+01  5.0314977865E+01
                       3.0706915697E+01  2.6631250074E+01  5.0312483426E+01
                       2.9157797938E+01  2.8765756724E+01  5.0304149734E+01
                       3.0331101983E+01  3.1130857274E+01  5.0301371837E+01
                       3.2981628229E+01  3.1354112719E+01  5.0305283570E+01
                       3.4531291974E+01  2.9216996000E+01  5.0314524330E+01
                       3.3358228164E+01  2.6855337714E+01  5.0318322680E+01
                       3.4376144332E+01  2.4301442193E+01  5.0320647043E+01
                       3.7734662733E+01  2.1471976370E+01  5.0307551241E+01
                       4.0407770998E+01  2.0907218017E+01  5.0291224008E+01
                       4.2546095997E+01  2.2463008122E+01  5.0281189562E+01
                       4.4904781317E+01  2.1296534358E+01  5.0270588199E+01
                       4.5134598130E+01  1.8637328236E+01  5.0268547294E+01
                       4.3012106750E+01  1.7081954229E+01  5.0275690459E+01
                       4.0637434934E+01  1.8245780098E+01  5.0287198891E+01
                       3.8099884301E+01  1.7232127750E+01  5.0298480556E+01
                       3.5270929531E+01  1.3873461033E+01  5.0301541912E+01
                       3.4698647884E+01  1.1184031072E+01  5.0292471227E+01
                       3.6249905912E+01  9.0516427378E+00  5.0280282493E+01
                       3.5079768591E+01  6.6852182402E+00  5.0271608651E+01
                       3.2047073343E+01  1.0958959927E+01  5.0296949878E+01
                       3.2429089469E+01  6.4605631931E+00  5.0272742486E+01
                       3.0877023381E+01  8.5957885582E+00  5.0284987911E+01
                       3.1029244533E+01  1.3513309374E+01  5.0311746433E+01
                       2.7666685829E+01  1.6341375595E+01  5.0325295769E+01
                       2.4992026962E+01  1.6907533549E+01  5.0329774420E+01
                       2.2848154735E+01  1.5357947086E+01  5.0342189920E+01
                       2.0492483263E+01  1.6532061921E+01  5.0343096989E+01
                       2.0268475751E+01  1.9191343697E+01  5.0328470509E+01
                       2.2395160310E+01  2.0739984483E+01  5.0316111700E+01
                       2.4766468847E+01  1.9569954972E+01  5.0319456515E+01
                       2.7305460885E+01  2.0581413350E+01  5.0314751097E+01
                       2.9175859185E+01  3.2838333982E+01  5.0294965665E+01
                       3.3834503471E+01  3.3231092587E+01  5.0300974994E+01
                       3.6585666026E+01  2.9366072534E+01  5.0319059673E+01
                       4.2347706191E+01  2.4513538648E+01  5.0281869863E+01
                       4.6612803108E+01  2.2450789974E+01  5.0263671801E+01
                       4.7015719613E+01  1.7793708627E+01  5.0259986835E+01
                       4.3172211954E+01  1.5028662326E+01  5.0272062185E+01
                       3.8300763807E+01  9.2463009079E+00  5.0276257377E+01
                       3.6235382660E+01  4.9780819756E+00  5.0262141123E+01
                       3.1578026903E+01  4.5830159187E+00  5.0262878116E+01
                       2.8822758527E+01  8.4421349463E+00  5.0284024151E+01
                       2.3036017913E+01  1.3306508710E+01  5.0351373989E+01
                       1.8779678627E+01  1.5384728661E+01  5.0354492037E+01
                       2.7106394055E+01  2.8576507827E+01  5.0298650631E+01
                       1.8389887647E+01  2.0039729519E+01  5.0325352461E+01
                       2.2241104641E+01  2.2793465521E+01  5.0305453645E+01
             xred      4.9882000000E-01  5.0000000000E-01  8.8772700000E-01
                       4.4322400000E-01  5.9658000000E-01  8.8762500000E-01
                       5.2822000000E-01  6.2929200000E-01  8.8750700000E-01
                       5.7873900000E-01  5.0808600000E-01  8.8746400000E-01
                       6.6529800000E-01  3.9065900000E-01  8.8713900000E-01
                       5.5438100000E-01  4.0308400000E-01  8.8751900000E-01
                       4.6934300000E-01  3.7038000000E-01  8.8761200000E-01
                       3.3235400000E-01  6.0897000000E-01  8.8743800000E-01
                       4.1880000000E-01  4.9153000000E-01  8.8759100000E-01
                       3.7348400000E-01  6.3290500000E-01  8.8751800000E-01
                       3.5100100000E-01  7.0402600000E-01  8.8747400000E-01
                       2.8732100000E-01  7.6045400000E-01  8.8732700000E-01
                       2.8292100000E-01  8.2297800000E-01  8.8727800000E-01
                       3.4065200000E-01  8.2888000000E-01  8.8734700000E-01
                       4.0437900000E-01  7.7238300000E-01  8.8751000000E-01
                       4.0873900000E-01  7.0995000000E-01  8.8757700000E-01
                       4.6580100000E-01  6.4243500000E-01  8.8761800000E-01
                       5.8009200000E-01  5.6763500000E-01  8.8738700000E-01
                       6.4875600000E-01  5.5270500000E-01  8.8709900000E-01
                       6.7714700000E-01  5.9383400000E-01  8.8692200000E-01
                       7.4656600000E-01  5.6299700000E-01  8.8673500000E-01
                       7.8697700000E-01  4.9269800000E-01  8.8669900000E-01
                       7.5894300000E-01  4.5158000000E-01  8.8682500000E-01
                       6.8919300000E-01  4.8234700000E-01  8.8702800000E-01
                       6.4449600000E-01  4.5555000000E-01  8.8722700000E-01
                       6.2412400000E-01  3.6676000000E-01  8.8728100000E-01
                       6.4657100000E-01  2.9566200000E-01  8.8712100000E-01
                       7.1027200000E-01  2.3929000000E-01  8.8690600000E-01
                       7.1476200000E-01  1.7673100000E-01  8.8675300000E-01
                       5.8884000000E-01  2.8971200000E-01  8.8720000000E-01
                       6.5704600000E-01  1.7079200000E-01  8.8677300000E-01
                       5.9328900000E-01  2.2723900000E-01  8.8698900000E-01
                       5.3177400000E-01  3.5723900000E-01  8.8746100000E-01
                       4.1740900000E-01  4.3200200000E-01  8.8770000000E-01
                       3.4869100000E-01  4.4696900000E-01  8.8777900000E-01
                       3.2009100000E-01  4.0600400000E-01  8.8799800000E-01
                       2.5064000000E-01  4.3704300000E-01  8.8801400000E-01
                       2.1036100000E-01  5.0734400000E-01  8.8775600000E-01
                       2.3858000000E-01  5.4828400000E-01  8.8753800000E-01
                       3.0833500000E-01  5.1735300000E-01  8.8759700000E-01
                       3.5309400000E-01  5.4409200000E-01  8.8751400000E-01
                       2.3390300000E-01  8.6811700000E-01  8.8716500000E-01
                       3.3536800000E-01  8.7850000000E-01  8.8727100000E-01
                       4.4944200000E-01  7.7632400000E-01  8.8759000000E-01
                       6.4550100000E-01  6.4804200000E-01  8.8693400000E-01
                       7.7041300000E-01  5.9351100000E-01  8.8661300000E-01
                       8.4119500000E-01  4.7039600000E-01  8.8654800000E-01
                       7.8974900000E-01  3.9729900000E-01  8.8676100000E-01
                       7.5465200000E-01  2.4443600000E-01  8.8683500000E-01
                       7.6378400000E-01  1.3160100000E-01  8.8658600000E-01
                       6.6237900000E-01  1.2115700000E-01  8.8659900000E-01
                       5.4828900000E-01  2.2317700000E-01  8.8697200000E-01
                       3.5150800000E-01  3.5177200000E-01  8.8816000000E-01
                       2.2659200000E-01  4.0671200000E-01  8.8821500000E-01
                       2.4285700000E-01  7.5545100000E-01  8.8723000000E-01
                       1.5613800000E-01  5.2977200000E-01  8.8770100000E-01
                       2.0791000000E-01  6.0257000000E-01  8.8735000000E-01
            znucl       25.00000    7.00000    6.00000    1.00000

- Timing analysis has been suppressed with timopt=0

 Suggested references for the acknowledgment of ABINIT usage.

 Calculation completed.
.Delivered   3 WARNINGs and   0 COMMENTs to log file.