.Version 7.10.5 of ABINIT

 ABINIT is a project of the Universite Catholique de Louvain,
 Corning Inc. and other collaborators, see ~abinit/doc/developers/contributors.txt .
 Please read ~abinit/doc/users/acknowledgments.html for suggested
 acknowledgments of the ABINIT effort.

.Starting date : Tue  7 Feb 2017.
- ( at 14h12 )

- input  file    -> elastic.inpt.in
- output file    -> elastic.inpt.out
- root for input  files -> tbase3_xi
- root for output files -> tbase3_xo

 DATASET    1 : space group Fm -3 m (#225); Bravais cF (face-center cubic)
   intxc =         0  ionmov =         2    iscf =         7 xclevel =         2
  lmnmax =         4   lnmax =         4   mband =        16  mffmem =         1
P  mgfft =        72   mkmem =         4 mpssoang=         4     mpw =     13966
  mqgrid =      3001   natom =         3    nfft =    373248    nkpt =        28
  nloalg =         4  nspden =         1 nspinor =         1  nsppol =         1
    nsym =        48  n1xccc =         0  ntypat =         2  occopt =         1
  Rough estimation (10% accuracy) of disk space for files :

 DATASET    2 : space group Fm -3 m (#225); Bravais cF (face-center cubic)
   intxc =         0  ionmov =         2    iscf =         7 xclevel =         2
  lmnmax =         4   lnmax =         4   mband =        16  mffmem =         1
P  mgfft =       144   mkmem =         4 mpssoang=         4     mpw =    111607
  mqgrid =      5474   natom =         3    nfft =   2985984    nkpt =        28
  nloalg =         4  nspden =         1 nspinor =         1  nsppol =         1
    nsym =        48  n1xccc =         0  ntypat =         2  occopt =         1
  Rough estimation (10% accuracy) of disk space for files :

 DATASET    3 : space group Fm -3 m (#225); Bravais cF (face-center cubic)
   intxc =         0    iscf =        -3 xclevel =         2  lmnmax =         4
   lnmax =         4   mband =        16  mffmem =         1   mgfft =        72
P  mkmem =        55  mkqmem =        55  mk1mem =        55 mpssoang=         4
     mpw =     13966  mqgrid =      3001   natom =         3    nfft =    373248
    nkpt =       432  nloalg =         4  nspden =         1 nspinor =         1
  nsppol =         1    nsym =        48  n1xccc =         0  ntypat =         2
  occopt =         1

 memorf : COMMENT -
  since getcell =   2 is non-zero, while idtset=  3.
  The following numbers are obtained by supposing that acell and rprim
  are NOT taken from a previous dataset. You cannot rely on them.

  Rough estimation (10% accuracy) of disk space for files :

 DATASET    4 : space group Fm -3 m (#225); Bravais cF (face-center cubic)
   intxc =         0    iscf =         7 xclevel =         2  lmnmax =         4
   lnmax =         4   mband =        16  mffmem =         1   mgfft =        72
P  mkmem =        55  mkqmem =        55  mk1mem =        55 mpssoang=         4
     mpw =     13966  mqgrid =      3001   natom =         3    nfft =    373248
    nkpt =       432  nloalg =         4  nspden =         1 nspinor =         1
  nsppol =         1    nsym =        48  n1xccc =         0  ntypat =         2
  occopt =         1

 memorf : COMMENT -
  since getcell =   2 is non-zero, while idtset=  4.
  The following numbers are obtained by supposing that acell and rprim
  are NOT taken from a previous dataset. You cannot rely on them.

  Rough estimation (10% accuracy) of disk space for files :

------------- Echo of variables that govern the present computation ------------
-
- outvars: echo of selected default values
-   accesswff0 =  0 , fftalg0 =312 , wfoptalg0 =  0
-
- outvars: echo of global parameters not present in the input file
-  max_nthreads =    0
-
 -outvars: echo values of preprocessed input variables --------
            acell      1.2585576045E+01  1.2585576045E+01  1.2585576045E+01 Bohr
              amu      1.12411000E+02  1.27600000E+02
           diemac      1.20000000E+01
          dilatmx1     1.00000000E+00
          dilatmx2     2.00000000E+00
          dilatmx3     1.00000000E+00
          dilatmx4     1.00000000E+00
             ecut      7.00000000E+01 Hartree
           ecutsm1     0.00000000E+00 Hartree
           ecutsm2     2.00000000E+00 Hartree
           ecutsm3     0.00000000E+00 Hartree
           ecutsm4     0.00000000E+00 Hartree
-          fftalg         312
          getcell1          0
          getcell2          0
          getcell3          2
          getcell4          2
           getddk1          0
           getddk2          0
           getddk3          0
           getddk4          3
           getwfk1          0
           getwfk2          1
           getwfk3          2
           getwfk4          2
          getxred1          0
          getxred2          1
          getxred3          2
          getxred4          2
           ionmov1          2
           ionmov2          2
           ionmov3          0
           ionmov4          0
             iscf1          7
             iscf2          7
             iscf3         -3
             iscf4          7
              ixc          11
           jdtset        1    2    3    4
              kpt1     0.00000000E+00  0.00000000E+00 -8.33333333E-02
                       0.00000000E+00  0.00000000E+00 -2.50000000E-01
                       0.00000000E+00  8.33333333E-02 -1.66666667E-01
                       8.33333333E-02  8.33333333E-02 -8.33333333E-02
                       0.00000000E+00  0.00000000E+00 -4.16666667E-01
                       0.00000000E+00  8.33333333E-02 -3.33333333E-01
                       0.00000000E+00  1.66666667E-01 -2.50000000E-01
                       8.33333333E-02  8.33333333E-02 -2.50000000E-01
                       8.33333333E-02  1.66666667E-01 -1.66666667E-01
                       1.66666667E-01  1.66666667E-01 -8.33333333E-02
                       0.00000000E+00  8.33333333E-02  5.00000000E-01
                       0.00000000E+00  1.66666667E-01 -4.16666667E-01
                       0.00000000E+00  2.50000000E-01 -3.33333333E-01
                       8.33333333E-02  1.66666667E-01 -3.33333333E-01
                       8.33333333E-02  2.50000000E-01 -2.50000000E-01
                       1.66666667E-01  1.66666667E-01 -2.50000000E-01
                       1.66666667E-01  2.50000000E-01 -1.66666667E-01
                       2.50000000E-01  2.50000000E-01 -8.33333333E-02
                       0.00000000E+00  2.50000000E-01  5.00000000E-01
                       0.00000000E+00  3.33333333E-01 -4.16666667E-01
                       8.33333333E-02  2.50000000E-01 -4.16666667E-01
                       8.33333333E-02  3.33333333E-01 -3.33333333E-01
                       1.66666667E-01  3.33333333E-01 -2.50000000E-01
                       2.50000000E-01  3.33333333E-01 -1.66666667E-01
                       3.33333333E-01  3.33333333E-01 -8.33333333E-02
                       0.00000000E+00  4.16666667E-01  5.00000000E-01
                       8.33333333E-02  4.16666667E-01 -4.16666667E-01
                       1.66666667E-01  4.16666667E-01 -3.33333333E-01
              kpt2     0.00000000E+00  0.00000000E+00 -8.33333333E-02
                       0.00000000E+00  0.00000000E+00 -2.50000000E-01
                       0.00000000E+00  8.33333333E-02 -1.66666667E-01
                       8.33333333E-02  8.33333333E-02 -8.33333333E-02
                       0.00000000E+00  0.00000000E+00 -4.16666667E-01
                       0.00000000E+00  8.33333333E-02 -3.33333333E-01
                       0.00000000E+00  1.66666667E-01 -2.50000000E-01
                       8.33333333E-02  8.33333333E-02 -2.50000000E-01
                       8.33333333E-02  1.66666667E-01 -1.66666667E-01
                       1.66666667E-01  1.66666667E-01 -8.33333333E-02
                       0.00000000E+00  8.33333333E-02  5.00000000E-01
                       0.00000000E+00  1.66666667E-01 -4.16666667E-01
                       0.00000000E+00  2.50000000E-01 -3.33333333E-01
                       8.33333333E-02  1.66666667E-01 -3.33333333E-01
                       8.33333333E-02  2.50000000E-01 -2.50000000E-01
                       1.66666667E-01  1.66666667E-01 -2.50000000E-01
                       1.66666667E-01  2.50000000E-01 -1.66666667E-01
                       2.50000000E-01  2.50000000E-01 -8.33333333E-02
                       0.00000000E+00  2.50000000E-01  5.00000000E-01
                       0.00000000E+00  3.33333333E-01 -4.16666667E-01
                       8.33333333E-02  2.50000000E-01 -4.16666667E-01
                       8.33333333E-02  3.33333333E-01 -3.33333333E-01
                       1.66666667E-01  3.33333333E-01 -2.50000000E-01
                       2.50000000E-01  3.33333333E-01 -1.66666667E-01
                       3.33333333E-01  3.33333333E-01 -8.33333333E-02
                       0.00000000E+00  4.16666667E-01  5.00000000E-01
                       8.33333333E-02  4.16666667E-01 -4.16666667E-01
                       1.66666667E-01  4.16666667E-01 -3.33333333E-01
              kpt3     0.00000000E+00  0.00000000E+00 -8.33333333E-02
                       0.00000000E+00  0.00000000E+00 -2.50000000E-01
                       0.00000000E+00  8.33333333E-02 -1.66666667E-01
                       0.00000000E+00  1.66666667E-01 -8.33333333E-02
                       8.33333333E-02  0.00000000E+00 -1.66666667E-01
                       8.33333333E-02  8.33333333E-02 -8.33333333E-02
                       1.66666667E-01  0.00000000E+00 -8.33333333E-02
                       0.00000000E+00  0.00000000E+00 -4.16666667E-01
                       0.00000000E+00  8.33333333E-02 -3.33333333E-01
                       0.00000000E+00  1.66666667E-01 -2.50000000E-01
                       0.00000000E+00  2.50000000E-01 -1.66666667E-01
                       0.00000000E+00  3.33333333E-01 -8.33333333E-02
                       8.33333333E-02  0.00000000E+00 -3.33333333E-01
                       8.33333333E-02  8.33333333E-02 -2.50000000E-01
                       8.33333333E-02  1.66666667E-01 -1.66666667E-01
                       8.33333333E-02  2.50000000E-01 -8.33333333E-02
                       1.66666667E-01  0.00000000E+00 -2.50000000E-01
                       1.66666667E-01  8.33333333E-02 -1.66666667E-01
                       1.66666667E-01  1.66666667E-01 -8.33333333E-02
                       2.50000000E-01  0.00000000E+00 -1.66666667E-01
                       2.50000000E-01  8.33333333E-02 -8.33333333E-02
                       3.33333333E-01  0.00000000E+00 -8.33333333E-02
                       0.00000000E+00  8.33333333E-02  5.00000000E-01
                       0.00000000E+00  1.66666667E-01 -4.16666667E-01
                       0.00000000E+00  2.50000000E-01 -3.33333333E-01
                       0.00000000E+00  3.33333333E-01 -2.50000000E-01
                       0.00000000E+00  4.16666667E-01 -1.66666667E-01
                       0.00000000E+00  5.00000000E-01 -8.33333333E-02
                       8.33333333E-02  0.00000000E+00  5.00000000E-01
                       8.33333333E-02  8.33333333E-02 -4.16666667E-01
[...]
                       2.50000000E-01  0.00000000E+00 -1.66666667E-01
                       2.50000000E-01  8.33333333E-02 -8.33333333E-02
                       3.33333333E-01  0.00000000E+00 -8.33333333E-02
                       0.00000000E+00  8.33333333E-02  5.00000000E-01
                       0.00000000E+00  1.66666667E-01 -4.16666667E-01
                       0.00000000E+00  2.50000000E-01 -3.33333333E-01
                       0.00000000E+00  3.33333333E-01 -2.50000000E-01
                       0.00000000E+00  4.16666667E-01 -1.66666667E-01
                       0.00000000E+00  5.00000000E-01 -8.33333333E-02
                       8.33333333E-02  0.00000000E+00  5.00000000E-01
                       8.33333333E-02  8.33333333E-02 -4.16666667E-01
                       8.33333333E-02  1.66666667E-01 -3.33333333E-01
                       8.33333333E-02  2.50000000E-01 -2.50000000E-01
                       8.33333333E-02  3.33333333E-01 -1.66666667E-01
                       8.33333333E-02  4.16666667E-01 -8.33333333E-02
                       1.66666667E-01  0.00000000E+00 -4.16666667E-01
                       1.66666667E-01  8.33333333E-02 -3.33333333E-01
                       1.66666667E-01  1.66666667E-01 -2.50000000E-01
                       1.66666667E-01  2.50000000E-01 -1.66666667E-01
                       1.66666667E-01  3.33333333E-01 -8.33333333E-02
                       2.50000000E-01  0.00000000E+00 -3.33333333E-01
                       2.50000000E-01  8.33333333E-02 -2.50000000E-01
                       2.50000000E-01  1.66666667E-01 -1.66666667E-01
                       2.50000000E-01  2.50000000E-01 -8.33333333E-02
                       3.33333333E-01  0.00000000E+00 -2.50000000E-01
                       3.33333333E-01  8.33333333E-02 -1.66666667E-01
                       3.33333333E-01  1.66666667E-01 -8.33333333E-02
                       4.16666667E-01  0.00000000E+00 -1.66666667E-01
                       4.16666667E-01  8.33333333E-02 -8.33333333E-02
                       5.00000000E-01  0.00000000E+00 -8.33333333E-02
                       0.00000000E+00  8.33333333E-02  3.33333333E-01
                       outvar_i_n : Printing only first  50 k-points.
           kptopt1          1
           kptopt2          1
           kptopt3          2
           kptopt4          2
         kptrlatt       -6    6    6      6   -6    6      6    6   -6
          kptrlen      7.55134563E+01
P           mkmem1          4
P           mkmem2          4
P           mkmem3         55
P           mkmem4         55
P          mkqmem1          4
P          mkqmem2          4
P          mkqmem3         55
P          mkqmem4         55
P          mk1mem1          4
P          mk1mem2          4
P          mk1mem3         55
P          mk1mem4         55
            natom           3
            nband1         16
            nband2         16
            nband3         16
            nband4         16
           ndtset           4
            ngfft1         72      72      72
            ngfft2        144     144     144
            ngfft3         72      72      72
            ngfft4         72      72      72
             nkpt1         28
             nkpt2         28
             nkpt3        432
             nkpt4        432
             nqpt1          0
             nqpt2          0
             nqpt3          1
             nqpt4          1
            nstep         500
             nsym          48
            ntime1        200
            ntime2        200
            ntime3          1
            ntime4          1
           ntypat           2
              occ1     2.000000  2.000000  2.000000  2.000000  2.000000  2.000000
                       2.000000  2.000000  2.000000  2.000000  2.000000  2.000000
                       2.000000  2.000000  2.000000  0.000000
              occ2     2.000000  2.000000  2.000000  2.000000  2.000000  2.000000
                       2.000000  2.000000  2.000000  2.000000  2.000000  2.000000
                       2.000000  2.000000  2.000000  0.000000
              occ3     2.000000  2.000000  2.000000  2.000000  2.000000  2.000000
                       2.000000  2.000000  2.000000  2.000000  2.000000  2.000000
                       2.000000  2.000000  2.000000  0.000000
              occ4     2.000000  2.000000  2.000000  2.000000  2.000000  2.000000
                       2.000000  2.000000  2.000000  2.000000  2.000000  2.000000
                       2.000000  2.000000  2.000000  0.000000
          optcell1          0
          optcell2          2
          optcell3          0
          optcell4          0
        optdriver1          0
        optdriver2          0
        optdriver3          1
        optdriver4          1
          rfatpol1          1       1
          rfatpol2          1       1
          rfatpol3          1       1
          rfatpol4          1       3
            rfdir1          0       0       0
            rfdir2          0       0       0
            rfdir3          1       1       1
            rfdir4          1       1       1
           rfelfd1          0
           rfelfd2          0
           rfelfd3          2
           rfelfd4          3
           rfphon1          0
           rfphon2          0
           rfphon3          0
           rfphon4          1
           rfstrs1          0
           rfstrs2          0
           rfstrs3          0
           rfstrs4          3
            rprim1     0.0000000000E+00  5.0000000000E-01  5.0000000000E-01
                       5.0000000000E-01  0.0000000000E+00  5.0000000000E-01
                       5.0000000000E-01  5.0000000000E-01  0.0000000000E+00
            rprim2     5.9558238350E-18  7.0710678119E-01  7.0710678119E-01
                       7.0710678119E-01 -2.9775406477E-18  7.0710678119E-01
                       7.0710678119E-01  7.0710678119E-01 -7.4253953134E-22
            rprim3     5.4086465139E-18  7.0710678119E-01  7.0710678119E-01
                       7.0710678119E-01 -2.7039860967E-18  7.0710678119E-01
                       7.0710678119E-01  7.0710678119E-01 -6.7432045656E-22
            rprim4     5.4086465139E-18  7.0710678119E-01  7.0710678119E-01
                       7.0710678119E-01 -2.7039860967E-18  7.0710678119E-01
                       7.0710678119E-01  7.0710678119E-01 -6.7432045656E-22
           shiftk      5.00000000E-01  5.00000000E-01  5.00000000E-01
          spgroup         225
           strten1    -5.7251358421E-04 -5.7251358421E-04 -5.7251358421E-04
                       0.0000000000E+00  0.0000000000E+00  0.0000000000E+00
           strten2    -2.2073230073E-07 -2.2073230073E-07 -2.2073230073E-07
                       0.0000000000E+00  0.0000000000E+00  0.0000000000E+00
           strten4     0.0000000000E+00  0.0000000000E+00  0.0000000000E+00
                       0.0000000000E+00  0.0000000000E+00  0.0000000000E+00
           symrel      1  0  0   0  1  0   0  0  1      -1  0  0   0 -1  0   0  0 -1
                       0 -1  1   0 -1  0   1 -1  0       0  1 -1   0  1  0  -1  1  0
                      -1  0  0  -1  0  1  -1  1  0       1  0  0   1  0 -1   1 -1  0
                       0  1 -1   1  0 -1   0  0 -1       0 -1  1  -1  0  1   0  0  1
                      -1  0  0  -1  1  0  -1  0  1       1  0  0   1 -1  0   1  0 -1
                       0 -1  1   1 -1  0   0 -1  0       0  1 -1  -1  1  0   0  1  0
                       1  0  0   0  0  1   0  1  0      -1  0  0   0  0 -1   0 -1  0
                       0  1 -1   0  0 -1   1  0 -1       0 -1  1   0  0  1  -1  0  1
                      -1  0  1  -1  1  0  -1  0  0       1  0 -1   1 -1  0   1  0  0
                       0 -1  0   1 -1  0   0 -1  1       0  1  0  -1  1  0   0  1 -1
                       1  0 -1   0  0 -1   0  1 -1      -1  0  1   0  0  1   0 -1  1
                       0  1  0   0  0  1   1  0  0       0 -1  0   0  0 -1  -1  0  0
                       1  0 -1   0  1 -1   0  0 -1      -1  0  1   0 -1  1   0  0  1
                       0 -1  0   0 -1  1   1 -1  0       0  1  0   0  1 -1  -1  1  0
                      -1  0  1  -1  0  0  -1  1  0       1  0 -1   1  0  0   1 -1  0
                       0  1  0   1  0  0   0  0  1       0 -1  0  -1  0  0   0  0 -1
                       0  0 -1   0  1 -1   1  0 -1       0  0  1   0 -1  1  -1  0  1
                       1 -1  0   0 -1  1   0 -1  0      -1  1  0   0  1 -1   0  1  0
                       0  0  1   1  0  0   0  1  0       0  0 -1  -1  0  0   0 -1  0
                      -1  1  0  -1  0  0  -1  0  1       1 -1  0   1  0  0   1  0 -1
                       0  0  1   0  1  0   1  0  0       0  0 -1   0 -1  0  -1  0  0
                       1 -1  0   0 -1  0   0 -1  1      -1  1  0   0  1  0   0  1 -1
                       0  0 -1   1  0 -1   0  1 -1       0  0  1  -1  0  1   0 -1  1
                      -1  1  0  -1  0  1  -1  0  0       1 -1  0   1  0 -1   1  0  0
           tolmxf1     1.00000000E-04
           tolmxf2     1.00000000E-04
           tolmxf3     5.00000000E-05
           tolmxf4     5.00000000E-05
           tolvrs1     1.00000000E-18
           tolvrs2     1.00000000E-18
           tolvrs3     0.00000000E+00
           tolvrs4     1.00000000E-18
           tolwfr1     0.00000000E+00
           tolwfr2     0.00000000E+00
           tolwfr3     1.00000000E-22
           tolwfr4     0.00000000E+00
            typat      1  1  2
              wtk1       0.00926    0.00926    0.02778    0.02778    0.00926    0.02778
                         0.02778    0.02778    0.05556    0.02778    0.02778    0.02778
                         0.02778    0.05556    0.05556    0.02778    0.05556    0.02778
                         0.02778    0.02778    0.05556    0.05556    0.05556    0.05556
                         0.02778    0.02778    0.05556    0.05556
              wtk2       0.00926    0.00926    0.02778    0.02778    0.00926    0.02778
                         0.02778    0.02778    0.05556    0.02778    0.02778    0.02778
                         0.02778    0.05556    0.05556    0.02778    0.05556    0.02778
                         0.02778    0.02778    0.05556    0.05556    0.05556    0.05556
                         0.02778    0.02778    0.05556    0.05556
              wtk3       0.00231    0.00231    0.00231    0.00231    0.00231    0.00231
                         0.00231    0.00231    0.00231    0.00231    0.00231    0.00231
                         0.00231    0.00231    0.00231    0.00231    0.00231    0.00231
                         0.00231    0.00231    0.00231    0.00231    0.00231    0.00231
                         0.00231    0.00231    0.00231    0.00231    0.00231    0.00231
                         0.00231    0.00231    0.00231    0.00231    0.00231    0.00231
                         0.00231    0.00231    0.00231    0.00231    0.00231    0.00231
                         0.00231    0.00231    0.00231    0.00231    0.00231    0.00231
                         0.00231    0.00231
              wtk4       0.00231    0.00231    0.00231    0.00231    0.00231    0.00231
                         0.00231    0.00231    0.00231    0.00231    0.00231    0.00231
                         0.00231    0.00231    0.00231    0.00231    0.00231    0.00231
                         0.00231    0.00231    0.00231    0.00231    0.00231    0.00231
                         0.00231    0.00231    0.00231    0.00231    0.00231    0.00231
                         0.00231    0.00231    0.00231    0.00231    0.00231    0.00231
                         0.00231    0.00231    0.00231    0.00231    0.00231    0.00231
                         0.00231    0.00231    0.00231    0.00231    0.00231    0.00231
                         0.00231    0.00231
                       outvars : Printing only first  50 k-points.
           xangst1     1.6650000000E+00  1.6650000000E+00  1.6650000000E+00
                      -1.6650000000E+00 -1.6650000000E+00 -1.6650000000E+00
                       0.0000000000E+00  0.0000000000E+00  0.0000000000E+00
           xangst2     1.8286569388E+00  1.8286569388E+00  1.8286569388E+00
                      -1.8286569388E+00 -1.8286569388E+00 -1.8286569388E+00
                       4.7779598919E-31  4.1550334129E-30 -4.1728711309E-30
           xangst3     1.8122912449E+00  1.8122912449E+00  1.8122912449E+00
                      -1.8122912449E+00 -1.8122912449E+00 -1.8122912449E+00
                       4.7351992039E-31  4.1178476491E-30 -4.1355257272E-30
           xangst4     1.8122912449E+00  1.8122912449E+00  1.8122912449E+00
                      -1.8122912449E+00 -1.8122912449E+00 -1.8122912449E+00
                       4.7351992039E-31  4.1178476491E-30 -4.1355257272E-30
            xcart1     3.1463940113E+00  3.1463940113E+00  3.1463940113E+00
                      -3.1463940113E+00 -3.1463940113E+00 -3.1463940113E+00
                       0.0000000000E+00  0.0000000000E+00  0.0000000000E+00
            xcart2     3.4556608053E+00  3.4556608053E+00  3.4556608053E+00
                      -3.4556608053E+00 -3.4556608053E+00 -3.4556608053E+00
                       9.0290356697E-31  7.8518752233E-30 -7.8855836252E-30
            xcart3     3.4247341259E+00  3.4247341259E+00  3.4247341259E+00
                      -3.4247341259E+00 -3.4247341259E+00 -3.4247341259E+00
                       8.9482296800E-31  7.7816043138E-30 -7.8150110399E-30
            xcart4     3.4247341259E+00  3.4247341259E+00  3.4247341259E+00
                      -3.4247341259E+00 -3.4247341259E+00 -3.4247341259E+00
                       8.9482296800E-31  7.7816043138E-30 -7.8150110399E-30
             xred      2.5000000000E-01  2.5000000000E-01  2.5000000000E-01
                      -2.5000000000E-01 -2.5000000000E-01 -2.5000000000E-01
                       0.0000000000E+00  0.0000000000E+00  0.0000000000E+00
            znucl       48.00000   52.00000

- Timing analysis has been suppressed with timopt=0

 Suggested references for the acknowledgment of ABINIT usage.

 [1] Metric tensor formulation of strain in density-functional perturbation theory,
 D. R. Hamann, X. Wu, K. M. Rabe, and D. Vanderbilt, Phys. Rev. B71, 035117 (2005).
 Comment : Non-vanishing rfstrs. Strong suggestion to cite this paper in your publications.

 [2] First-principles responses of solids to atomic displacements and homogeneous electric fields:,
 implementation of a conjugate-gradient algorithm. X. Gonze, Phys. Rev. B55, 10337 (1997).
 Comment : Non-vanishing rfphon and/or rfelfd, in the norm-conserving case.

 [3] Dynamical matrices, Born effective charges, dielectric permittivity tensors, and ,
 interatomic force constants from density-functional perturbation theory,
 X. Gonze and C. Lee, Phys. Rev. B55, 10355 (1997).
 Comment : Non-vanishing rfphon and/or rfelfd, in the norm-conserving case.

 [4] Ab initio pseudopotentials for electronic structure calculations of poly-atomic systems,
 using density-functional theory.
 M. Fuchs, M. Scheffler, Comput. Phys. Commun. 119, 67 (1999).
 Comment : Some pseudopotential generated using the FHI code were used.

 [5] ABINIT : First-principles approach of materials and nanosystem properties.
 X. Gonze, B. Amadon, P.-M. Anglade, J.-M. Beuken, F. Bottin, P. Boulanger, F. Bruneval,
 D. Caliste, R. Caracas, M. Cote, T. Deutsch, L. Genovese, Ph. Ghosez, M. Giantomassi
 S. Goedecker, D.R. Hamann, P. Hermet, F. Jollet, G. Jomard, S. Leroux, M. Mancini, S. Mazevet,
 M.J.T. Oliveira, G. Onida, Y. Pouillon, T. Rangel, G.-M. Rignanese, D. Sangalli, R. Shaltaf,
 M. Torrent, M.J. Verstraete, G. Zerah, J.W. Zwanziger
 Computer Phys. Comm. 180, 2582-2615 (2009).
 Comment : the third generic paper describing the ABINIT project.
 Note that a version of this paper, that is not formatted for Computer Phys. Comm.
 The licence allows the authors to put it on the Web.

 [6] A brief introduction to the ABINIT software package.
 X. Gonze, G.-M. Rignanese, M. Verstraete, J.-M. Beuken, Y. Pouillon, R. Caracas, F. Jollet,
 M. Torrent, G. Zerah, M. Mikami, Ph. Ghosez, M. Veithen, J.-Y. Raty, V. Olevano, F. Bruneval,
 L. Reining, R. Godby, G. Onida, D.R. Hamann, and D.C. Allan.
 Z. Kristallogr. 220, 558-562 (2005).
 Comment : the second generic paper describing the ABINIT project. Note that this paper
 should be cited especially if you are using the GW part of ABINIT, as several authors
 of this part are not in the list of authors of the first or third paper.
 Note that it should not redistributed (Copyright by Oldenburg Wissenshaftverlag,
 the licence allows the authors to put it on the Web).
-

 Calculation completed.
.Delivered    4 WARNINGs and   8 COMMENTs to log file.