.Version 8.4.2 of ABINIT

 ABINIT is a project of the Universite Catholique de Louvain,
 Corning Inc. and other collaborators, see ~abinit/doc/developers/contributors.txt .
 Please read ~abinit/doc/users/acknowledgments.html for suggested
 acknowledgments of the ABINIT effort.

.Starting date : Mon 28 Jan 2019.
- ( at 13h26 )

- input  file    -> agnr.in
- output file    -> teph_1.out
- root for input  files -> teph_1i
- root for output files -> teph_1o

 Symmetries : space group Pm (#  6); Bravais mP (primitive monocl.)
     intxc =       0    ionmov =       2      iscf =      17    lmnmax =       4
     lnmax =       4     mgfft =     270  mpssoang =       2    mqgrid =   13197
     natom =      19  nloc_mem =       1    nspden =       1   nspinor =       1
    nsppol =       1      nsym =       2    n1xccc =    2501    ntypat =       3
    occopt =       3   xclevel =       2
-    mband =          50        mffmem =           1         mkmem =           1
       mpw =       15664          nfft =      518400          nkpt =          11
  Rough estimation (10% accuracy) of disk space for files :

------------- Echo of variables that govern the present computation ------------
-
- outvars: echo of selected default values
-   iomode0 =  0 , fftalg0 =112 , wfoptalg0 =  0
-
- outvars: echo of global parameters not present in the input file
-  max_nthreads =    1
-
 -outvars: echo values of preprocessed input variables --------
-          iomode           1
            acell      2.3000000000E+01  3.8000000000E+01  8.1713259118E+00 Bohr
              amu      6.94100000E+00  1.20110000E+01  1.00794000E+00
        autoparal           1
           diemac      1.00000000E+01
          dilatmx      1.15000000E+00
             ecut      4.50000000E+01 Hartree
           ecutsm      5.00000000E-01 Hartree
-          fftalg         401
           ionmov           2
     densfor_pred           6
             iscf          17
           istwfk        2    0    0    0    0    0    0    0    0    0
                         1
              ixc          11
              kpt      0.00000000E+00  0.00000000E+00  0.00000000E+00
                       0.00000000E+00  0.00000000E+00  5.00000000E-02
                       0.00000000E+00  0.00000000E+00  1.00000000E-01
                       0.00000000E+00  0.00000000E+00  1.50000000E-01
                       0.00000000E+00  0.00000000E+00  2.00000000E-01
                       0.00000000E+00  0.00000000E+00  2.50000000E-01
                       0.00000000E+00  0.00000000E+00  3.00000000E-01
                       0.00000000E+00  0.00000000E+00  3.50000000E-01
                       0.00000000E+00  0.00000000E+00  4.00000000E-01
                       0.00000000E+00  0.00000000E+00  4.50000000E-01
                       0.00000000E+00  0.00000000E+00  5.00000000E-01
         kptrlatt        1    0    0      0    1    0      0    0   20
          kptrlen      1.63426518E+02
P           mkmem           1
            natom          19
            nband          50
            ngfft         160     270      60
             nkpt          11
-          npband           2
-           npfft           5
-           npkpt          11
            nstep          50
             nsym           2
            ntime         250
           ntypat           3
              occ      2.000000  2.000000  2.000000  2.000000  2.000000  2.000000
                       2.000000  2.000000  2.000000  2.000000  2.000000  2.000000
                       2.000000  2.000000  2.000000  2.000000  2.000000  2.000000
                       2.000000  2.000000  2.000000  2.000000  2.000000  2.000000
                       2.000000  2.000000  2.000000  2.000000  2.000000  2.000000
                       2.000000  1.000000  0.000000  0.000000  0.000000  0.000000
                       0.000000  0.000000  0.000000  0.000000  0.000000  0.000000
                       0.000000  0.000000  0.000000  0.000000  0.000000  0.000000
                       0.000000  0.000000
                       2.000000  2.000000  2.000000  2.000000  2.000000  2.000000
                       2.000000  2.000000  2.000000  2.000000  2.000000  2.000000
                       2.000000  2.000000  2.000000  2.000000  2.000000  2.000000
                       2.000000  2.000000  2.000000  2.000000  2.000000  2.000000
                       2.000000  2.000000  2.000000  2.000000  2.000000  2.000000
                       2.000000  1.000000  0.000000  0.000000  0.000000  0.000000
                       0.000000  0.000000  0.000000  0.000000  0.000000  0.000000
                       0.000000  0.000000  0.000000  0.000000  0.000000  0.000000
                       0.000000  0.000000
                       2.000000  2.000000  2.000000  2.000000  2.000000  2.000000
                       2.000000  2.000000  2.000000  2.000000  2.000000  2.000000
                       2.000000  2.000000  2.000000  2.000000  2.000000  2.000000
                       2.000000  2.000000  2.000000  2.000000  2.000000  2.000000
                       2.000000  2.000000  2.000000  2.000000  2.000000  2.000000
                       2.000000  1.000000  0.000000  0.000000  0.000000  0.000000
                       0.000000  0.000000  0.000000  0.000000  0.000000  0.000000
                       0.000000  0.000000  0.000000  0.000000  0.000000  0.000000
                       0.000000  0.000000
                       2.000000  2.000000  2.000000  2.000000  2.000000  2.000000
                       2.000000  2.000000  2.000000  2.000000  2.000000  2.000000
                       2.000000  2.000000  2.000000  2.000000  2.000000  2.000000
                       2.000000  2.000000  2.000000  2.000000  2.000000  2.000000
                       2.000000  2.000000  2.000000  2.000000  2.000000  2.000000
                       2.000000  1.000000  0.000000  0.000000  0.000000  0.000000
                       0.000000  0.000000  0.000000  0.000000  0.000000  0.000000
                       0.000000  0.000000  0.000000  0.000000  0.000000  0.000000
                       0.000000  0.000000
                       2.000000  2.000000  2.000000  2.000000  2.000000  2.000000
                       2.000000  2.000000  2.000000  2.000000  2.000000  2.000000
                       2.000000  2.000000  2.000000  2.000000  2.000000  2.000000
                       2.000000  2.000000  2.000000  2.000000  2.000000  2.000000
                       2.000000  2.000000  2.000000  2.000000  2.000000  2.000000
                       2.000000  1.000000  0.000000  0.000000  0.000000  0.000000
                       0.000000  0.000000  0.000000  0.000000  0.000000  0.000000
                       0.000000  0.000000  0.000000  0.000000  0.000000  0.000000
                       0.000000  0.000000
                       2.000000  2.000000  2.000000  2.000000  2.000000  2.000000
                       2.000000  2.000000  2.000000  2.000000  2.000000  2.000000
                       2.000000  2.000000  2.000000  2.000000  2.000000  2.000000
                       2.000000  2.000000  2.000000  2.000000  2.000000  2.000000
                       2.000000  2.000000  2.000000  2.000000  2.000000  2.000000
                       2.000000  1.000000  0.000000  0.000000  0.000000  0.000000
                       0.000000  0.000000  0.000000  0.000000  0.000000  0.000000
                       0.000000  0.000000  0.000000  0.000000  0.000000  0.000000
                       0.000000  0.000000
                       2.000000  2.000000  2.000000  2.000000  2.000000  2.000000
                       2.000000  2.000000  2.000000  2.000000  2.000000  2.000000
                       2.000000  2.000000  2.000000  2.000000  2.000000  2.000000
                       2.000000  2.000000  2.000000  2.000000  2.000000  2.000000
                       2.000000  2.000000  2.000000  2.000000  2.000000  2.000000
                       2.000000  1.000000  0.000000  0.000000  0.000000  0.000000
                       0.000000  0.000000  0.000000  0.000000  0.000000  0.000000
[...]
                       2.000000  2.000000  2.000000  2.000000  2.000000  2.000000
                       2.000000  2.000000  2.000000  2.000000  2.000000  2.000000
                       2.000000  1.000000  0.000000  0.000000  0.000000  0.000000
                       0.000000  0.000000  0.000000  0.000000  0.000000  0.000000
                       0.000000  0.000000  0.000000  0.000000  0.000000  0.000000
                       0.000000  0.000000
                       2.000000  2.000000  2.000000  2.000000  2.000000  2.000000
                       2.000000  2.000000  2.000000  2.000000  2.000000  2.000000
                       2.000000  2.000000  2.000000  2.000000  2.000000  2.000000
                       2.000000  2.000000  2.000000  2.000000  2.000000  2.000000
                       2.000000  2.000000  2.000000  2.000000  2.000000  2.000000
                       2.000000  1.000000  0.000000  0.000000  0.000000  0.000000
                       0.000000  0.000000  0.000000  0.000000  0.000000  0.000000
                       0.000000  0.000000  0.000000  0.000000  0.000000  0.000000
                       0.000000  0.000000
           occopt           3
          optcell           6
           ortalg          -2
        paral_kgb           1
           prtdos           1
          spgroup           6
           symrel      1  0  0   0  1  0   0  0  1       1  0  0   0 -1  0   0  0  1
           tolmxf      5.00000000E-06
           tolvrs      1.00000000E-08
            typat      1  2  2  2  2  2  2  2  2  2  2  2  2  2  2  3  3  3  3
         wfoptalg         114
              wtk        0.05000    0.10000    0.10000    0.10000    0.10000    0.10000
                         0.10000    0.10000    0.10000    0.10000    0.05000
           xangst      1.7512167124E+00  1.4306524983E-18  3.6084741264E+00
                       5.1566312698E-03 -3.6902328715E+00 -3.3001546685E-02
                       5.1068651576E-03 -3.6902324287E+00  2.9166679320E+00
                       8.1698820561E-03 -2.4916230611E+00  7.1922525304E-01
                       8.1390940821E-03 -2.4916224880E+00  2.1644427403E+00
                       9.3440509012E-04 -1.2484324015E+00 -1.7646247605E-03
                       9.4471619508E-04 -1.2484323563E+00  2.8854284597E+00
                       1.1733067487E-02 -1.6419902295E-16  7.1974860522E-01
                       1.1770948425E-02 -8.1596891251E-17  2.1639140316E+00
                       9.3440509012E-04  1.2484324015E+00 -1.7646247605E-03
                       9.4471619508E-04  1.2484323563E+00  2.8854284597E+00
                       8.1698820561E-03  2.4916230611E+00  7.1922525304E-01
                       8.1390940821E-03  2.4916224880E+00  2.1644427403E+00
                       5.1566312698E-03  3.6902328715E+00 -3.3001546685E-02
                       5.1068651576E-03  3.6902324287E+00  2.9166679320E+00
                       1.2275910031E-03 -4.6498096462E+00  4.7833949993E-01
                       1.1674384952E-03 -4.6498075422E+00  2.4053237452E+00
[...]
    >>>>> Internal E= -9.38320096029697E+01

    -kT*entropy     = -1.94629887518109E-02
    >>>> Etotal (DC)= -9.38514725917215E+01
 rms coord change=  3.8705E-04   atom, delta coord (reduced):
     1       -0.000310805492      0.000000000000     -0.001026393300
     2       -0.000032198009      0.000412901165      0.000697131835
     3       -0.000028957509      0.000412823108     -0.000583232420
     4       -0.000006285606      0.000249721549      0.000381053298
     5       -0.000003741837      0.000249630541     -0.000267876765
     6        0.000064149845      0.000130018101      0.000791515311
     7        0.000063528088      0.000129975224     -0.000677709861
     8        0.000092615301     -0.000000000000      0.000410510865
     9        0.000089663857     -0.000000000000     -0.000296904873
    10        0.000064149845     -0.000130018101      0.000791515311
    11        0.000063528088     -0.000129975224     -0.000677709861
    12       -0.000006285606     -0.000249721549      0.000381053298
    13       -0.000003741837     -0.000249630541     -0.000267876765
    14       -0.000032198009     -0.000412901165      0.000697131835
    15       -0.000028957509     -0.000412823108     -0.000583232420
    16        0.000003537457      0.000420477063      0.000586601714
    17        0.000004230737      0.000420211346     -0.000471089457
    18        0.000003537457     -0.000420477063      0.000586601714
    19        0.000004230737     -0.000420211346     -0.000471089457

 Cartesian components of stress tensor (hartree/bohr^3)
  sigma(1 1)=  1.67116242E-07  sigma(3 2)=  0.00000000E+00
  sigma(2 2)= -8.12536049E-09  sigma(3 1)= -9.74608898E-10
  sigma(3 3)= -2.29747805E-09  sigma(2 1)=  0.00000000E+00

-Cartesian components of stress tensor (GPa)         [Pressure= -1.5367E-03 GPa]
- sigma(1 1)=  4.91672875E-03  sigma(3 2)=  0.00000000E+00
- sigma(2 2)= -2.39056319E-04  sigma(3 1)= -2.86739789E-05
- sigma(3 3)= -6.75941264E-05  sigma(2 1)=  0.00000000E+00

== END DATASET(S) ==============================================================

 -outvars: echo values of variables after computation  --------
-          iomode           1
            acell      2.3000000000E+01  3.8000000000E+01  8.1722842497E+00 Bohr
              amu      6.94100000E+00  1.20110000E+01  1.00794000E+00
        autoparal           1
           diemac      1.00000000E+01
          dilatmx      1.15000000E+00
             ecut      4.50000000E+01 Hartree
           ecutsm      5.00000000E-01 Hartree
           etotal     -9.3851472592E+01
            fcart     -1.7842282406E-06  8.9803944206E-23  2.0308415855E-06
                       1.7235795482E-07 -1.2290110343E-06  1.8692455723E-07
                      -1.0671194127E-07 -1.4972952254E-06 -2.1328503504E-07
                       1.1594549114E-06 -7.3985216879E-07 -1.4942612661E-06
                       2.8722941261E-08 -4.5934460295E-07  1.2320594759E-06
                       1.0623508056E-06  1.6269389036E-06  1.8488384877E-07
                      -1.0950406944E-07  1.6301141478E-06 -4.1553119960E-07
                       4.4644189299E-06 -2.9281534361E-22  3.5590143294E-07
                       3.0709429848E-06 -2.0748955082E-22 -1.0996193033E-06
                       1.0623508056E-06 -1.6269389036E-06  1.8488384877E-07
                      -1.0950406944E-07 -1.6301141478E-06 -4.1553119960E-07
                       1.1594549114E-06  7.3985216879E-07 -1.4942612661E-06
                       2.8722941261E-08  4.5934460295E-07  1.2320594759E-06
                       1.7235795482E-07  1.2290110343E-06  1.8692455723E-07
                      -1.0671194127E-07  1.4972952254E-06 -2.1328503504E-07
                      -3.3394731957E-06  2.5036090254E-07 -1.6400161437E-06
                      -1.7427642438E-06  5.8952702158E-07  1.5156639050E-06
                      -3.3394731957E-06 -2.5036090254E-07 -1.6400161437E-06
                      -1.7427642438E-06 -5.8952702158E-07  1.5156639050E-06
-          fftalg         401
           ionmov           2
     densfor_pred           6
             iscf          17
           istwfk        2    0    0    0    0    0    0    0    0    0
                         1
              ixc          11
              kpt      0.00000000E+00  0.00000000E+00  0.00000000E+00
                       0.00000000E+00  0.00000000E+00  5.00000000E-02
                       0.00000000E+00  0.00000000E+00  1.00000000E-01
                       0.00000000E+00  0.00000000E+00  1.50000000E-01
                       0.00000000E+00  0.00000000E+00  2.00000000E-01
                       0.00000000E+00  0.00000000E+00  2.50000000E-01
                       0.00000000E+00  0.00000000E+00  3.00000000E-01
                       0.00000000E+00  0.00000000E+00  3.50000000E-01
                       0.00000000E+00  0.00000000E+00  4.00000000E-01
                       0.00000000E+00  0.00000000E+00  4.50000000E-01
                       0.00000000E+00  0.00000000E+00  5.00000000E-01
         kptrlatt        1    0    0      0    1    0      0    0   20
          kptrlen      1.63426518E+02
P           mkmem           1
            natom          19
            nband          50
            ngfft         160     270      60
             nkpt          11
-          npband           2
-           npfft           5
-           npkpt          11
            nstep          50
             nsym           2
            ntime         250
           ntypat           3
              occ      2.000000  2.000000  2.000000  2.000000  2.000000  2.000000
                       2.000000  2.000000  2.000000  2.000000  2.000000  2.000000
                       2.000000  2.000000  2.000000  2.000000  2.000000  2.000000
                       2.000000  2.000000  2.000000  2.000000  2.000000  2.000000
                       2.000000  2.000000  2.000000  1.999998  1.999989  1.997582
                       1.994353  1.440102  1.186634  0.651095  0.325976  0.001210
                       0.000636  0.000426  0.000098  0.000054  0.000016  0.000006
                       0.000006  0.000006  0.000002  0.000002  0.000000  0.000000
                       0.000000  0.000000
                       2.000000  2.000000  2.000000  2.000000  2.000000  2.000000
                       2.000000  2.000000  2.000000  2.000000  2.000000  2.000000
                       2.000000  2.000000  2.000000  2.000000  2.000000  2.000000
                       2.000000  2.000000  2.000000  2.000000  2.000000  2.000000
                       2.000000  2.000000  2.000000  1.999998  1.999992  1.998545
                       1.995515  1.375495  0.928587  0.596320  0.233351  0.001355
                       0.000592  0.000397  0.000091  0.000050  0.000015  0.000006
                       0.000005  0.000005  0.000002  0.000002  0.000000  0.000000
                       0.000000  0.000000
                       2.000000  2.000000  2.000000  2.000000  2.000000  2.000000
                       2.000000  2.000000  2.000000  2.000000  2.000000  2.000000
                       2.000000  2.000000  2.000000  2.000000  2.000000  2.000000
                       2.000000  2.000000  2.000000  2.000000  2.000000  2.000000
                       2.000000  2.000000  2.000000  1.999998  1.999997  1.999561
                       1.997624  1.157968  0.491233  0.403345  0.083513  0.001865
                       0.000476  0.000321  0.000074  0.000041  0.000012  0.000005
                       0.000004  0.000004  0.000002  0.000001  0.000000  0.000000
                       0.000000  0.000000
                       2.000000  2.000000  2.000000  2.000000  2.000000  2.000000
                       2.000000  2.000000  2.000000  2.000000  2.000000  2.000000
                       2.000000  2.000000  2.000000  2.000000  2.000000  2.000000
                       2.000000  2.000000  2.000000  2.000000  2.000000  2.000000
                       2.000000  2.000000  2.000000  1.999999  1.999998  1.999899
                       1.999040  0.810340  0.366654  0.105420  0.017400  0.002961
                       0.000331  0.000225  0.000052  0.000028  0.000009  0.000003
                       0.000003  0.000003  0.000001  0.000001  0.000000  0.000000
                       0.000000  0.000000
                       2.000000  2.000000  2.000000  2.000000  2.000000  2.000000
                       2.000000  2.000000  2.000000  2.000000  2.000000  2.000000
                       2.000000  2.000000  2.000000  2.000000  2.000000  2.000000
                       2.000000  2.000000  2.000000  2.000000  2.000000  2.000000
                       2.000000  2.000000  2.000000  2.000000  1.999998  1.999978
                       1.999666  0.462453  0.239197  0.024718  0.004593  0.002618
                       0.000199  0.000137  0.000032  0.000017  0.000006  0.000002
                       0.000002  0.000002  0.000001  0.000001  0.000000  0.000000
                       0.000000  0.000000
                       2.000000  2.000000  2.000000  2.000000  2.000000  2.000000
                       2.000000  2.000000  2.000000  2.000000  2.000000  2.000000
                       2.000000  2.000000  2.000000  2.000000  2.000000  2.000000
                       2.000000  2.000000  2.000000  2.000000  2.000000  2.000000
                       2.000000  2.000000  2.000000  2.000000  1.999998  1.999995
                       1.999892  0.225272  0.132692  0.015381  0.002638  0.000328
                       0.000104  0.000073  0.000017  0.000009  0.000003  0.000003
                       0.000001  0.000001  0.000001  0.000000  0.000000  0.000000
                       0.000000  0.000000
                       2.000000  2.000000  2.000000  2.000000  2.000000  2.000000
                       2.000000  2.000000  2.000000  2.000000  2.000000  2.000000
                       2.000000  2.000000  2.000000  2.000000  2.000000  2.000000
                       2.000000  2.000000  2.000000  2.000000  2.000000  2.000000
                       2.000000  2.000000  2.000000  2.000000  1.999999  1.999996
                       1.999966  0.099624  0.062257  0.024711  0.000580  0.000047
                       0.000037  0.000033  0.000009  0.000008  0.000004  0.000003
[...]
                       2.000000  2.000000  2.000000  2.000000  2.000000  2.000000
                       2.000000  2.000000  2.000000  2.000000  2.000000  1.999999
                       1.999994  0.081505  0.005809  0.003586  0.000247  0.000228
                       0.000006  0.000002  0.000001  0.000001  0.000000  0.000000
                       0.000000  0.000000  0.000000  0.000000  0.000000  0.000000
                       0.000000  0.000000
                       2.000000  2.000000  2.000000  2.000000  2.000000  2.000000
                       2.000000  2.000000  2.000000  2.000000  2.000000  2.000000
                       2.000000  2.000000  2.000000  2.000000  2.000000  2.000000
                       2.000000  2.000000  2.000000  2.000000  2.000000  2.000000
                       2.000000  2.000000  2.000000  2.000000  2.000000  1.999999
                       1.999994  0.089233  0.003276  0.001797  0.000571  0.000405
                       0.000002  0.000001  0.000001  0.000000  0.000000  0.000000
                       0.000000  0.000000  0.000000  0.000000  0.000000  0.000000
                       0.000000  0.000000
           occopt           3
          optcell           6
           ortalg          -2
        paral_kgb           1
           prtdos           1
          spgroup           6
           strten      1.6711624166E-07 -8.1253604950E-09 -2.2974780458E-09
                       0.0000000000E+00 -9.7460889753E-10  0.0000000000E+00
           symrel      1  0  0   0  1  0   0  0  1       1  0  0   0 -1  0   0  0  1
           tolmxf      5.00000000E-06
           tolvrs      1.00000000E-08
            typat      1  2  2  2  2  2  2  2  2  2  2  2  2  2  2  3  3  3  3
         wfoptalg         114
              wtk        0.05000    0.10000    0.10000    0.10000    0.10000    0.10000
                         0.10000    0.10000    0.10000    0.10000    0.05000
           xangst      1.7474338752E+00  1.5462136439E-18  3.6044586037E+00
                       4.7647468627E-03 -3.6819299519E+00 -2.9990610159E-02
                       4.7544211186E-03 -3.6819310787E+00  2.9144877615E+00
                       8.0933794679E-03 -2.4866014769E+00  7.2095750218E-01
                       8.0935519048E-03 -2.4866027338E+00  2.1635381312E+00
                       1.7151777147E-03 -1.2458179021E+00  1.6581447643E-03
                       1.7179213689E-03 -1.2458187191E+00  2.8828360495E+00
                       1.2860295334E-02 -1.6440481695E-16  7.2160830754E-01
                       1.2862254026E-02 -8.1790136535E-17  2.1628838259E+00
                       1.7151777147E-03  1.2458179021E+00  1.6581447643E-03
                       1.7179213689E-03  1.2458187191E+00  2.8828360495E+00
                       8.0933794679E-03  2.4866014769E+00  7.2095750218E-01
                       8.0935519048E-03  2.4866027338E+00  2.1635381312E+00
                       4.7647468627E-03  3.6819299519E+00 -2.9990610159E-02
                       4.7544211186E-03  3.6819310787E+00  2.9144877615E+00
                       1.2706456655E-03 -4.6413543848E+00  4.8093240976E-01
                       1.2189311204E-03 -4.6413576240E+00  2.4035685759E+00
                       1.2706456655E-03  4.6413543848E+00  4.8093240976E-01
                       1.2189311204E-03  4.6413576240E+00  2.4035685759E+00
            xcart      3.3021714594E+00  2.9219203298E-18  6.8114396183E+00
                       9.0040666631E-03 -6.9578392495E+00 -5.6674039758E-02
                       8.9845538345E-03 -6.9578413789E+00  5.5075836868E+00
                       1.5294270684E-02 -4.6989957929E+00  1.3624122326E+00
                       1.5294596542E-02 -4.6989981682E+00  4.0884945460E+00
                       3.2412161500E-03 -2.3542546464E+00  3.1334394931E-03
                       3.2464009050E-03 -2.3542561904E+00  5.4477706195E+00
                       2.4302436169E-02 -3.1068007897E-16  1.3636420765E+00
                       2.4306137561E-02 -1.5456095842E-16  4.0872580882E+00
                       3.2412161500E-03  2.3542546464E+00  3.1334394931E-03
                       3.2464009050E-03  2.3542561904E+00  5.4477706195E+00
                       1.5294270684E-02  4.6989957929E+00  1.3624122326E+00
                       1.5294596542E-02  4.6989981682E+00  4.0884945460E+00
                       9.0040666631E-03  6.9578392495E+00 -5.6674039758E-02
                       8.9845538345E-03  6.9578413789E+00  5.5075836868E+00
                       2.4011723198E-03 -8.7708886729E+00  9.0883054288E-01
                       2.3034459923E-03 -8.7708947941E+00  4.5420863500E+00
                       2.4011723198E-03  8.7708886729E+00  9.0883054288E-01
                       2.3034459923E-03  8.7708947941E+00  4.5420863500E+00
             xred      1.4357267215E-01 -1.0898906999E-17  8.3348050682E-01
                       3.9148115926E-04 -1.8310103288E-01 -6.9349080412E-03
                       3.9063277541E-04 -1.8310108892E-01  6.7393442501E-01
                       6.6496829060E-04 -1.2365778402E-01  1.6671131240E-01
                       6.6498245836E-04 -1.2365784653E-01  5.0028785356E-01
                       1.4092244130E-04 -6.1954069643E-02  3.8342272459E-04
                       1.4114786543E-04 -6.1954110273E-02  6.6661541045E-01
                       1.0566276595E-03 -1.0373133531E-17  1.6686180201E-01
                       1.0567885896E-03 -1.0653508820E-17  5.0013655465E-01
                       1.4092244130E-04  6.1954069643E-02  3.8342272459E-04
                       1.4114786543E-04  6.1954110273E-02  6.6661541045E-01
                       6.6496829060E-04  1.2365778402E-01  1.6671131240E-01
                       6.6498245836E-04  1.2365784653E-01  5.0028785356E-01
                       3.9148115926E-04  1.8310103288E-01 -6.9349080412E-03
                       3.9063277541E-04  1.8310108892E-01  6.7393442501E-01
                       1.0439879651E-04 -2.3081285981E-01  1.1120887565E-01
                       1.0014982575E-04 -2.3081302090E-01  5.5579152795E-01
                       1.0439879651E-04  2.3081285981E-01  1.1120887565E-01
                       1.0014982575E-04  2.3081302090E-01  5.5579152795E-01
            znucl        3.00000    6.00000    1.00000

- Timing analysis has been suppressed with timopt=0

 Suggested references for the acknowledgment of ABINIT usage.

 Calculation completed.
.Delivered   0 WARNINGs and  32 COMMENTs to log file.