.Version 6.6.1  of ABINIT

 ABINIT is a project of the Universite Catholique de Louvain,
 Corning Inc. and other collaborators, see ~abinit/doc/developers/contributors.txt .
 Please read ~abinit/doc/users/acknowledgments.html for suggested
 acknowledgments of the ABINIT effort.

.Starting date : Thu  5 May 2011.
- ( at 16h 5 )

 === Build Information ===
  Version       : 6.6.1
  Build target  : powerpc_aix5.3.0.0_ibm12.1
  Build date    : 20110304

 === Optimizations ===
  Debug level        : basic
  Optimization level : standard
  Architecture       : ibm_powerpc

  Parallel build : yes
  Parallel I/O   : no
  Time tracing   : no
  GPU support    : no

 === Connectors / Fallbacks ===
  Connectors on : yes
  Fallbacks on  : yes
  DFT flavor    :
  FFT flavor    : none
  LINALG flavor : netlib
  MATH flavor   : none
  TIMER flavor  : abinit
  TRIO flavor   :

 === Experimental features ===
  Bindings            : no
  Exports             : no
  GW double-precision : no

 ++
 Def
 +++

 CPP options activated during the build:

                    CC_IBM                   CXX_IBM         HAVE_BSE_UNPACKED

 HAVE_FC_ALLOCATABLE_DT...              HAVE_FC_EXIT            HAVE_FC_FLUSH_

             HAVE_FC_GAMMA            HAVE_FC_GETENV            HAVE_FC_GETPID

     HAVE_FC_ISO_C_BINDING        HAVE_FC_LONG_LINES              HAVE_FC_NULL

            HAVE_GW_CUTOFF           HAVE_GW_OPTIMAL           HAVE_GW_WRAPPER

               HAVE_LINALG        HAVE_LINALG_NETLIB        HAVE_LINALG_SERIAL

                  HAVE_MPI                 HAVE_MPI2    HAVE_MPI_INCLUDED_ONCE

             HAVE_SIGNAL_H              HAVE_STDIO_H                HAVE_TIMER

         HAVE_TIMER_ABINIT            HAVE_TIMER_MPI         HAVE_TIMER_SERIAL

              USE_MACROAVE

- input  file    -> graphene-gw.in
- output file    -> graphene-gw.out
- root for input  files -> graphene-gwi
- root for output files -> graphene-gwo

 instrng :   113 lines of input have been read

 iofn2 : Please give name of formatted atomic psp file
 iofn2 : for atom type   1 , psp file is ../../pseudo/06-C.GGA.fhi
  read the values zionpsp=  4.0 , pspcod=   6 , lmax=   3

 inpspheads : deduce mpsang  =   4, n1xccc  =   0.
 leave_test : synchronization done...

 invars1m : enter jdtset=     1
 invars1 : treat image number     1

 symlatt : the Bravais lattice is oP (primitive orthorhombic)
  randomcellpos : enter
  rprimd= 4.63902626700000020 0.000000000000000000E+00 0.000000000000000000E+00 0.000000000000000000E+00 8.07757478000000084 0.000000000000000000E+00 0.000000000000000000E+00 0.000000000000000000E+00 40.0000000000000000
  znucl= 6.00000000000000000
 En ingeo =  0.000000000000000000E+00 0.000000000000000000E+00 0.000000000000000000E+00 0.000000000000000000E+00 0.000000000000000000E+00 0.000000000000000000E+00 0.000000000000000000E+00 0.000000000000000000E+00 0.000000000000000000E+00 0.000000000000000000E+00 0.000000000000000000E+00 0.000000000000000000E+00
  xangst is defined in input file
 ingeo : takes atomic coordinates from input array xangst

 symlatt : the Bravais lattice is oP (primitive orthorhombic)

[...]

 symbrav : COMMENT -
  The Bravais lattice determined only from the primitive
  vectors, bravais(1)=  3, is more symmetric
  than the real one, iholohedry=  2, obtained by taking into
  account the atomic positions. Start deforming the primitive vector set.

 symlatt : the Bravais lattice is mP (primitive monoclinic)
 symspgr : the symmetry operation no.   1 is the identity
 symplanes : the symmetry operation no.   2 is a mirror plane
 symspgr : spgroup=   6  Pm   (=Cs^1)
 getkgrid : length of smallest supercell vector (bohr)=    8.077575E+00
       Simple Lattice Grid
 symkpt : found identity, with number  1
 npfft, npband and npkpt 1 1 1
 mpi_enreg%sizecart(1),np_fft 1 1
 mpi_enreg%sizecart(2),np_band 1 1
 mpi_enreg%sizecart(3),np_kpt 1 1
 in initmpi_grid : me_fft, me_band, me_kpt are 0 0 0
 invars1: mkmem  undefined in the input file. Use default mkmem  = nkpt
 invars1: With nkpt_me=    2 and mkmem  =     2, ground state wf handled in core.
 invars1: mkqmem undefined in the input file. Use default mkqmem = nkpt
 invars1: With nkpt_me=    2 and mkqmem =     2, ground state wf handled in core.
 invars1: mk1mem undefined in the input file. Use default mk1mem = nkpt
 invars1: With nkpt_me=    2 and mk1mem =     2, ground state wf handled in core.

[...]

 invars1m : enter jdtset=     3
 invars1 : treat image number     1

 symlatt : the Bravais lattice is oP (primitive orthorhombic)
  randomcellpos : enter
  rprimd= 4.63902626700000020 0.000000000000000000E+00 0.000000000000000000E+00 0.000000000000000000E+00 8.07757478000000084 0.000000000000000000E+00 0.000000000000000000E+00 0.000000000000000000E+00 40.0000000000000000
  znucl= 6.00000000000000000
 En ingeo =  0.000000000000000000E+00 0.000000000000000000E+00 0.000000000000000000E+00 0.000000000000000000E+00 0.000000000000000000E+00 0.000000000000000000E+00 0.000000000000000000E+00 0.000000000000000000E+00 0.000000000000000000E+00 0.000000000000000000E+00 0.000000000000000000E+00 0.000000000000000000E+00
  xangst is defined in input file
 ingeo : takes atomic coordinates from input array xangst

[...]

 symlatt : the Bravais lattice is oP (primitive orthorhombic)

 symbrav : COMMENT -
  The Bravais lattice determined only from the primitive
  vectors, bravais(1)=  3, is more symmetric
  than the real one, iholohedry=  2, obtained by taking into
  account the atomic positions. Start deforming the primitive vector set.

 symlatt : the Bravais lattice is mP (primitive monoclinic)
 symspgr : the symmetry operation no.   1 is the identity
 symplanes : the symmetry operation no.   2 is a mirror plane
 symspgr : spgroup=   6  Pm   (=Cs^1)
 getkgrid : length of smallest supercell vector (bohr)=    8.077575E+00
       Simple Lattice Grid
 symkpt : found identity, with number  1
 npfft, npband and npkpt 1 1 1
 mpi_enreg%sizecart(1),np_fft 1 1
 mpi_enreg%sizecart(2),np_band 1 1
 mpi_enreg%sizecart(3),np_kpt 1 1
 in initmpi_grid : me_fft, me_band, me_kpt are 0 0 0
 invars1: mkmem  undefined in the input file. Use default mkmem  = nkpt
 invars1: With nkpt_me=    2 and mkmem  =     2, ground state wf handled in core.
 invars1: mkqmem undefined in the input file. Use default mkqmem = nkpt
 invars1: With nkpt_me=    2 and mkqmem =     2, ground state wf handled in core.
 invars1: mk1mem undefined in the input file. Use default mk1mem = nkpt
 invars1: With nkpt_me=    2 and mk1mem =     2, ground state wf handled in core.

 DATASET    1 : space group Pm (#  6); Bravais mP (primitive monocl.)
 getkgrid : length of smallest supercell vector (bohr)=    8.077575E+00
       Simple Lattice Grid
 symkpt : found identity, with number  1
 chkneu : initialized the occupation numbers for occopt=    1
    spin-unpolarized case :
  2.00  2.00  2.00  2.00  2.00  2.00  2.00  2.00  0.00  0.00  0.00  0.00
  0.00  0.00  0.00  0.00  0.00  0.00  0.00  0.00
 For input ecut=  2.500000E+01 best grid ngfft=      24      40     192
       max ecut=  2.842446E+01

 ==== FFT mesh ====
  FFT mesh divisions ........................    24   40  192
  Augmented FFT divisions ...................    25   41  192
  FFT algorithm .............................   112
  FFT cache size ............................    16
 getmpw: optimal value of mpw=    8931

 getdim_nloc : deduce lmnmax  =  16, lnmax  =   4,
                      lmnmaxso=  16, lnmaxso=   4.
   intxc =         0  ionmov =         0    iscf =         7 xclevel =         2
  lmnmax =         4   lnmax =         4   mband =        20  mffmem =         1
P  mgfft =       192   mkmem =         2 mpssoang=         4     mpw =      8931
  mqgrid =      3001   natom =         4    nfft =    184320    nkpt =         2
  nloalg =         4  nspden =         1 nspinor =         1  nsppol =         1
    nsym =         2  n1xccc =         0  ntypat =         1  occopt =         1
  Rough estimation (10% accuracy) of disk space for files :

 leave_test : synchronization done...
 The job will continue.

 DATASET    2 : space group Pm (#  6); Bravais mP (primitive monocl.)
 getkgrid : length of smallest supercell vector (bohr)=    8.077575E+00
       Simple Lattice Grid
 symkpt : found identity, with number  1
 chkneu : initialized the occupation numbers for occopt=    1
    spin-unpolarized case :
  2.00  2.00  2.00  2.00  2.00  2.00  2.00  2.00  0.00  0.00  0.00  0.00
  0.00  0.00  0.00  0.00  0.00  0.00  0.00  0.00
 setshells : ecut_trial =    25.00
 setshells : ecut_trial =     3.00

 setshells.F90:98:COMMENT
  One of the three variables ecutsigx, npwsigx, or nshsigx
 must be non-null. Returning.
 For input ecut=  2.498244E+01 best grid ngfft=      24      40     180
       max ecut=  2.498244E+01

[...]

 leave_test : synchronization done...
 The job will continue.

 DATASET    3 : space group Pm (#  6); Bravais mP (primitive monocl.)
 getkgrid : length of smallest supercell vector (bohr)=    8.077575E+00
       Simple Lattice Grid
 symkpt : found identity, with number  1
 chkneu : initialized the occupation numbers for occopt=    1
    spin-unpolarized case :
  2.00  2.00  2.00  2.00  2.00  2.00  2.00  2.00  0.00  0.00  0.00  0.00
  0.00  0.00  0.00  0.00  0.00  0.00  0.00  0.00
 setshells : ecut_trial =    25.00

 setshells.F90:98:COMMENT
  One of the three variables ecuteps, npweps, or nsheps
 must be non-null. Returning.
 setshells : ecut_trial =     8.00
 For input ecut=  2.498244E+01 best grid ngfft=      24      40     180
       max ecut=  2.498244E+01

 ==== FFT mesh ====
  FFT mesh divisions ........................    24   40  180
  Augmented FFT divisions ...................    25   41  180
  FFT algorithm .............................   112
  FFT cache size ............................    16
 getmpw: optimal value of mpw=    8929

 getdim_nloc : deduce lmnmax  =  16, lnmax  =   4,
                      lmnmaxso=  16, lnmaxso=   4.
   intxc =         0  ionmov =         0    iscf =         7 xclevel =         2
  lmnmax =         4   lnmax =         4   mband =        20  mffmem =         1
P  mgfft =       180   mkmem =         2 mpssoang=         4     mpw =      8929
  mqgrid =      3001   natom =         4    nfft =    172800    nkpt =         2
  nloalg =         4  nspden =         1 nspinor =         1  nsppol =         1
    nsym =         2  n1xccc =         0  ntypat =         1  occopt =         1
  Rough estimation (10% accuracy) of disk space for files :

 leave_test : synchronization done...
 The job will continue.
 -outvars: echo values of preprocessed input variables --------
            acell    4.6390262670E+00  8.0775747800E+00  4.0000000000E+01 Bohr
              amu    1.20110000E+01
             bdgw3     2   16
      chksymbreak         0
           diemac    2.00000000E+00
             ecut1   2.50000000E+01 Hartree
             ecut2   2.49824361E+01 Hartree
             ecut3   2.49824361E+01 Hartree
          ecuteps1   0.00000000E+00 Hartree
          ecuteps2   2.99628373E+00 Hartree
          ecuteps3   0.00000000E+00 Hartree
         ecutsigx1   0.00000000E+00 Hartree
[...]
 pep: jb =  8
 pep: Vcp%i_sz =  -1285.73927311596594
 pep: CMPLX(0.0_gwp,-sqrt(-Vcp%i_sz)) =  (0.0000000000E+00,0.0000000000E+00)
 pep: jb =  9
 pep: Vcp%i_sz =  -1285.73927311596594
 pep: CMPLX(0.0_gwp,-sqrt(-Vcp%i_sz)) =  (0.0000000000E+00,0.0000000000E+00)
 pep: jb =  10
 pep: Vcp%i_sz =  -1285.73927311596594
 pep: CMPLX(0.0_gwp,-sqrt(-Vcp%i_sz)) =  (0.0000000000E+00,0.0000000000E+00)
 pep: jb =  11
 pep: Vcp%i_sz =  -1285.73927311596594
 pep: CMPLX(0.0_gwp,-sqrt(-Vcp%i_sz)) =  (0.0000000000E+00,0.0000000000E+00)
 pep: jb =  12
 pep: Vcp%i_sz =  -1285.73927311596594
 pep: CMPLX(0.0_gwp,-sqrt(-Vcp%i_sz)) =  (0.0000000000E+00,0.0000000000E+00)
 pep: jb =  13
 pep: Vcp%i_sz =  -1285.73927311596594
 pep: CMPLX(0.0_gwp,-sqrt(-Vcp%i_sz)) =  (0.0000000000E+00,0.0000000000E+00)
 pep: jb =  14
 pep: Vcp%i_sz =  -1285.73927311596594
 pep: CMPLX(0.0_gwp,-sqrt(-Vcp%i_sz)) =  (0.0000000000E+00,0.0000000000E+00)
 pep: jb =  15
 pep: Vcp%i_sz =  -1285.73927311596594
 pep: CMPLX(0.0_gwp,-sqrt(-Vcp%i_sz)) =  (0.0000000000E+00,0.0000000000E+00)
 pep: jb =  16
 pep: Vcp%i_sz =  -1285.73927311596594
 pep: CMPLX(0.0_gwp,-sqrt(-Vcp%i_sz)) =  (0.0000000000E+00,0.0000000000E+00)
 pep: jb =  2
 pep: Vcp%i_sz =  -1285.73927311596594
 pep: CMPLX(0.0_gwp,-sqrt(-Vcp%i_sz)) =  (0.0000000000E+00,0.0000000000E+00)
 pep: jb =  3
 pep: Vcp%i_sz =  -1285.73927311596594
 pep: CMPLX(0.0_gwp,-sqrt(-Vcp%i_sz)) =  (0.0000000000E+00,0.0000000000E+00)
 pep: jb =  4
 pep: Vcp%i_sz =  -1285.73927311596594
 pep: CMPLX(0.0_gwp,-sqrt(-Vcp%i_sz)) =  (0.0000000000E+00,0.0000000000E+00)
 pep: jb =  5
 pep: Vcp%i_sz =  -1285.73927311596594
 pep: CMPLX(0.0_gwp,-sqrt(-Vcp%i_sz)) =  (0.0000000000E+00,0.0000000000E+00)
 pep: jb =  6
 pep: Vcp%i_sz =  -1285.73927311596594
 pep: CMPLX(0.0_gwp,-sqrt(-Vcp%i_sz)) =  (0.0000000000E+00,0.0000000000E+00)
 pep: jb =  7
 pep: Vcp%i_sz =  -1285.73927311596594
 pep: CMPLX(0.0_gwp,-sqrt(-Vcp%i_sz)) =  (0.0000000000E+00,-35.85720825)
 pep: jb =  8
 pep: Vcp%i_sz =  -1285.73927311596594
 pep: CMPLX(0.0_gwp,-sqrt(-Vcp%i_sz)) =  (0.0000000000E+00,0.0000000000E+00)
 pep: jb =  9
 pep: Vcp%i_sz =  -1285.73927311596594
 pep: CMPLX(0.0_gwp,-sqrt(-Vcp%i_sz)) =  (0.0000000000E+00,0.0000000000E+00)
 pep: jb =  10
 pep: Vcp%i_sz =  -1285.73927311596594
 pep: CMPLX(0.0_gwp,-sqrt(-Vcp%i_sz)) =  (0.0000000000E+00,0.0000000000E+00)
 pep: jb =  11
 pep: Vcp%i_sz =  -1285.73927311596594
 pep: CMPLX(0.0_gwp,-sqrt(-Vcp%i_sz)) =  (0.0000000000E+00,0.0000000000E+00)
 pep: jb =  12
 pep: Vcp%i_sz =  -1285.73927311596594
 pep: CMPLX(0.0_gwp,-sqrt(-Vcp%i_sz)) =  (0.0000000000E+00,0.0000000000E+00)
 pep: jb =  13
 pep: Vcp%i_sz =  -1285.73927311596594
 pep: CMPLX(0.0_gwp,-sqrt(-Vcp%i_sz)) =  (0.0000000000E+00,0.0000000000E+00)
 pep: jb =  14
 pep: Vcp%i_sz =  -1285.73927311596594
 pep: CMPLX(0.0_gwp,-sqrt(-Vcp%i_sz)) =  (0.0000000000E+00,0.0000000000E+00)
 pep: jb =  15
 pep: Vcp%i_sz =  -1285.73927311596594
 pep: CMPLX(0.0_gwp,-sqrt(-Vcp%i_sz)) =  (0.0000000000E+00,0.0000000000E+00)
 pep: jb =  16
 pep: Vcp%i_sz =  -1285.73927311596594
 pep: CMPLX(0.0_gwp,-sqrt(-Vcp%i_sz)) =  (0.0000000000E+00,0.0000000000E+00)
 pep: jb =  2
 pep: Vcp%i_sz =  -1285.73927311596594
 pep: CMPLX(0.0_gwp,-sqrt(-Vcp%i_sz)) =  (0.0000000000E+00,0.0000000000E+00)
 pep: jb =  3
 pep: Vcp%i_sz =  -1285.73927311596594
 pep: CMPLX(0.0_gwp,-sqrt(-Vcp%i_sz)) =  (0.0000000000E+00,0.0000000000E+00)
 pep: jb =  4
 pep: Vcp%i_sz =  -1285.73927311596594
 pep: CMPLX(0.0_gwp,-sqrt(-Vcp%i_sz)) =  (0.0000000000E+00,0.0000000000E+00)
 pep: jb =  5
 pep: Vcp%i_sz =  -1285.73927311596594
 pep: CMPLX(0.0_gwp,-sqrt(-Vcp%i_sz)) =  (0.0000000000E+00,0.0000000000E+00)
 pep: jb =  6
 pep: Vcp%i_sz =  -1285.73927311596594
 pep: CMPLX(0.0_gwp,-sqrt(-Vcp%i_sz)) =  (0.0000000000E+00,0.0000000000E+00)
 pep: jb =  7
 pep: Vcp%i_sz =  -1285.73927311596594
 pep: CMPLX(0.0_gwp,-sqrt(-Vcp%i_sz)) =  (0.0000000000E+00,0.0000000000E+00)
 pep: jb =  8
 pep: Vcp%i_sz =  -1285.73927311596594
 pep: CMPLX(0.0_gwp,-sqrt(-Vcp%i_sz)) =  (0.0000000000E+00,-35.85720825)
 pep: jb =  9
 pep: Vcp%i_sz =  -1285.73927311596594
 pep: CMPLX(0.0_gwp,-sqrt(-Vcp%i_sz)) =  (0.0000000000E+00,0.0000000000E+00)
 pep: jb =  10
 pep: Vcp%i_sz =  -1285.73927311596594
 pep: CMPLX(0.0_gwp,-sqrt(-Vcp%i_sz)) =  (0.0000000000E+00,0.0000000000E+00)
 pep: jb =  11
 pep: Vcp%i_sz =  -1285.73927311596594
 pep: CMPLX(0.0_gwp,-sqrt(-Vcp%i_sz)) =  (0.0000000000E+00,0.0000000000E+00)
 pep: jb =  12
 pep: Vcp%i_sz =  -1285.73927311596594
 pep: CMPLX(0.0_gwp,-sqrt(-Vcp%i_sz)) =  (0.0000000000E+00,0.0000000000E+00)
 pep: jb =  13
 pep: Vcp%i_sz =  -1285.73927311596594
 pep: CMPLX(0.0_gwp,-sqrt(-Vcp%i_sz)) =  (0.0000000000E+00,0.0000000000E+00)
 pep: jb =  14
 pep: Vcp%i_sz =  -1285.73927311596594
 pep: CMPLX(0.0_gwp,-sqrt(-Vcp%i_sz)) =  (0.0000000000E+00,0.0000000000E+00)
 pep: jb =  15
 pep: Vcp%i_sz =  -1285.73927311596594
 pep: CMPLX(0.0_gwp,-sqrt(-Vcp%i_sz)) =  (0.0000000000E+00,0.0000000000E+00)
 pep: jb =  16
 pep: Vcp%i_sz =  -1285.73927311596594
 pep: CMPLX(0.0_gwp,-sqrt(-Vcp%i_sz)) =  (0.0000000000E+00,0.0000000000E+00)

 Calculating <nk|Sigma_c(omega)|nk> at k =    0.000   0.000   0.000
 bands n = from   2 to  16

 m_wfs.F90:4706:COMMENT
 Changing FFT mesh
 standard GW with PPM
 Will sum 40 (b,k,s) states in Sigma_c.
 Will treat 30 extrapolar terms.

 calc_sigc_me.F90:419:COMMENT

 calculation status (      2 to be completed):
 reading q-slice corresponding to iq = 1 from file: graphene-gwo_DS2_SCR
 at q-point :     0.000000    0.000000    0.000000 number of imaginary plasmonpole frequencies =    47590 /   140625

 cppm2par : omega twiddle minval [eV]  =   0.21829925
            omega twiddle min location =   335  123    1
 reading q-slice corresponding to iq = 2 from file: graphene-gwo_DS2_SCR
 at q-point :     0.500000    0.000000    0.000000 number of imaginary plasmonpole frequencies =    44040 /   140625

 cppm2par : omega twiddle minval [eV]  =   0.09392054
            omega twiddle min location =   321  123    1

 k =    0.000   0.000   0.000
 Band     E0 <VxcLDA>   SigX SigC(E0)      Z dSigC/dE  Sig(E)    E-E0       E
    2 -16.814 -16.076 -23.436    NaNQ    NaNQ    NaNQ    NaNQ    NaNQ    NaNQ
    2   0.000   0.000   0.000    NaNQ    NaNQ   0.000    NaNQ    NaNQ    NaNQ
    3 -15.827 -15.592 -21.572    NaNQ    NaNQ    NaNQ    NaNQ    NaNQ    NaNQ
    3   0.000   0.000   0.000    NaNQ    NaNQ   0.000    NaNQ    NaNQ    NaNQ
    4 -10.207 -12.806 -16.012    NaNQ    NaNQ    NaNQ    NaNQ    NaNQ    NaNQ
    4   0.000   0.000   0.000    NaNQ    NaNQ   0.000    NaNQ    NaNQ    NaNQ
    5  -8.910 -16.985 -21.238    NaNQ    NaNQ    NaNQ    NaNQ    NaNQ    NaNQ
    5   0.000   0.000   0.000    NaNQ    NaNQ   0.000    NaNQ    NaNQ    NaNQ
    6  -5.679 -17.455 -20.688    NaNQ    NaNQ    NaNQ    NaNQ    NaNQ    NaNQ
    6   0.000   0.000   0.000    NaNQ    NaNQ   0.000    NaNQ    NaNQ    NaNQ
    7  -5.546 -17.576 -21.264    NaNQ    NaNQ    NaNQ    NaNQ    NaNQ    NaNQ
    7   0.000   0.000   0.000    NaNQ    NaNQ   0.000    NaNQ    NaNQ    NaNQ
    8  -4.955 -13.838 -15.232    NaNQ    NaNQ    NaNQ    NaNQ    NaNQ    NaNQ
    8   0.000   0.000   0.000    NaNQ    NaNQ   0.000    NaNQ    NaNQ    NaNQ
    9  -0.908 -13.134  -7.499    NaNQ    NaNQ    NaNQ    NaNQ    NaNQ    NaNQ
    9   0.000   0.000   0.000    NaNQ    NaNQ   0.000    NaNQ    NaNQ    NaNQ
   10   0.613  -3.002  -1.144    NaNQ    NaNQ    NaNQ    NaNQ    NaNQ    NaNQ
   10   0.000   0.000   0.000    NaNQ    NaNQ   0.000    NaNQ    NaNQ    NaNQ
   11   1.378  -1.458  -0.313    NaNQ    NaNQ    NaNQ    NaNQ    NaNQ    NaNQ
   11   0.000   0.000   0.000    NaNQ    NaNQ   0.000    NaNQ    NaNQ    NaNQ
   12   1.679  -0.304  -0.089    NaNQ    NaNQ    NaNQ    NaNQ    NaNQ    NaNQ
   12   0.000   0.000   0.000    NaNQ    NaNQ   0.000    NaNQ    NaNQ    NaNQ
   13   2.478  -0.896  -0.208    NaNQ    NaNQ    NaNQ    NaNQ    NaNQ    NaNQ
   13   0.000   0.000   0.000    NaNQ    NaNQ   0.000    NaNQ    NaNQ    NaNQ
   14   2.898  -0.885  -0.335    NaNQ    NaNQ    NaNQ    NaNQ    NaNQ    NaNQ
   14   0.000   0.000   0.000    NaNQ    NaNQ   0.000    NaNQ    NaNQ    NaNQ
   15   4.364  -1.133  -0.290    NaNQ    NaNQ    NaNQ    NaNQ    NaNQ    NaNQ
   15   0.000   0.000   0.000    NaNQ    NaNQ   0.000    NaNQ    NaNQ    NaNQ
   16   4.928  -1.249  -0.464    NaNQ    NaNQ    NaNQ    NaNQ    NaNQ    NaNQ
   16   0.000   0.000   0.000    NaNQ    NaNQ   0.000    NaNQ    NaNQ    NaNQ

== END DATASET(S) ==============================================================

 -outvars: echo values of variables after computation  --------
            acell    4.6390262670E+00  8.0775747800E+00  4.0000000000E+01 Bohr
              amu    1.20110000E+01
             bdgw3     2   16
      chksymbreak         0
           diemac    2.00000000E+00
             ecut1   2.50000000E+01 Hartree
             ecut2   2.49824361E+01 Hartree
             ecut3   2.49824361E+01 Hartree
          ecuteps1   0.00000000E+00 Hartree
          ecuteps2   2.99628373E+00 Hartree
          ecuteps3   0.00000000E+00 Hartree
         ecutsigx1   0.00000000E+00 Hartree
         ecutsigx2   0.00000000E+00 Hartree
         ecutsigx3   7.99874582E+00 Hartree
          ecutwfn1   0.00000000E+00 Hartree
          ecutwfn2   2.49824361E+01 Hartree
          ecutwfn3   2.49824361E+01 Hartree
           etotal1  -2.2748002226E+01
           etotal2   0.0000000000E+00
           etotal3   0.0000000000E+00
            fcart1   2.2678748710E-04  2.7731361256E-02  0.0000000000E+00
                    -2.4240624449E-04 -2.7638268500E-02  0.0000000000E+00
                     3.6827466283E-04 -2.7513274880E-02  0.0000000000E+00
                    -3.5265590544E-04  2.7420182124E-02  0.0000000000E+00
            fcart2   0.0000000000E+00  0.0000000000E+00  0.0000000000E+00
                     0.0000000000E+00  0.0000000000E+00  0.0000000000E+00
                     0.0000000000E+00  0.0000000000E+00  0.0000000000E+00
                     0.0000000000E+00  0.0000000000E+00  0.0000000000E+00
            fcart3   0.0000000000E+00  0.0000000000E+00  0.0000000000E+00
                     0.0000000000E+00  0.0000000000E+00  0.0000000000E+00
                     0.0000000000E+00  0.0000000000E+00  0.0000000000E+00
                     0.0000000000E+00  0.0000000000E+00  0.0000000000E+00
           getscr1        0
           getscr2        0
           getscr3        2
           getkss1        0
           getkss2        1
           getkss3        1
           gw_eet1       -1
           gw_eet2        2
           gw_eet3        2
            gwmem         0
         icutcoul         2
          inclvkb         2
           istwfk      1    1
              ixc        11
           jdtset      1    2    3
              kpt    0.00000000E+00  0.00000000E+00  0.00000000E+00
                     5.00000000E-01  0.00000000E+00  0.00000000E+00
            kptgw3   0.00000000E+00  0.00000000E+00  0.00000000E+00
          kptrlen    8.07757478E+00
         kptrlatt    2  0  0   0  1  0   0  0  1
          kssform1        3
          kssform2        1
          kssform3        1
P           mkmem         2
            natom         4
            nband        20
           ndtset         3
            ngfft1       24      40     192
            ngfft2       24      40     180
            ngfft3       24      40     180
           nkptgw1        0
           nkptgw2        0
           nkptgw3        1
             nkpt         2
           npweps1        0
           npweps2      375
           npweps3        0
          npwsigx1        0
          npwsigx2        0
          npwsigx3     1561
           npwwfn1        0
           npwwfn2     8931
           npwwfn3     8931
           nsheps1        0
           nsheps2      196
           nsheps3        0
          nshsigx1        0
          nshsigx2        0
          nshsigx3      802
           nshwfn1        0
           nshwfn2     4540
           nshwfn3     4540
            nstep      1200
             nsym         2
           ntypat         1
              occ    2.000000  2.000000  2.000000  2.000000  2.000000  2.000000
                     2.000000  2.000000  0.000000  0.000000  0.000000  0.000000
                     0.000000  0.000000  0.000000  0.000000  0.000000  0.000000
                     0.000000  0.000000
        optdriver1        0
        optdriver2        3
        optdriver3        4
          ppmodel         2
           prtpot1        1
           prtpot2        0
           prtpot3        0
           prtvxc1        1
           prtvxc2        0
           prtvxc3        0
             rcut    2.00000000E+01 Bohr
          spgroup         6
           strten1  -1.6055193970E-04  7.8567440084E-05  1.4663676190E-05
                     0.0000000000E+00  0.0000000000E+00 -2.4264950658E-08
           strten2   0.0000000000E+00  0.0000000000E+00  0.0000000000E+00
                     0.0000000000E+00  0.0000000000E+00  0.0000000000E+00
           strten3   0.0000000000E+00  0.0000000000E+00  0.0000000000E+00
                     0.0000000000E+00  0.0000000000E+00  0.0000000000E+00
        symmorphi         0
           symrel    1  0  0   0  1  0   0  0  1       1  0  0   0  1  0   0  0 -1
           toldfe    1.00000000E-10 Hartree
            typat    1  1  1  1
          vcutgeo    1.0000000  1.0000000  0.0000000
              wtk      0.50000    0.50000
           xangst    8.5905895062E+00  3.5515456535E+00  0.0000000000E+00
                     9.8181907544E+00  4.2665912580E+00  0.0000000000E+00
                     8.5904597857E+00  2.1292785330E+00  0.0000000000E+00
                     9.8181668072E+00  1.4145377489E+00  0.0000000000E+00
            xcart    1.6233861487E+01  6.7114486336E+00  0.0000000000E+00
                     1.8553691646E+01  8.0626889986E+00  0.0000000000E+00
                     1.6233616351E+01  4.0237532880E+00  0.0000000000E+00
                     1.8553646393E+01  2.6730889500E+00  0.0000000000E+00
             xred    3.4994114179E+00  8.3087421860E-01  0.0000000000E+00
                     3.9994797568E+00  9.9815714719E-01  0.0000000000E+00
                     3.4993585757E+00  4.9813878517E-01  0.0000000000E+00
                     3.9994700018E+00  3.3092716847E-01  0.0000000000E+00
            znucl      6.00000

 Suggested references for the acknowledgment of ABINIT usage.

 [1] Ab initio pseudopotentials for electronic structure calculations of poly-atomic systems,
 using density-functional theory.
 M. Fuchs, M. Scheffler, Comput. Phys. Commun. 119, 67 (1999).
 Comment : Some pseudopotential generated using the FHI code were used.

 [2] ABINIT : First-principles approach of materials and nanosystem properties.
 X. Gonze, B. Amadon, P.-M. Anglade, J.-M. Beuken, F. Bottin, P. Boulanger, F. Bruneval,
 D. Caliste, R. Caracas, M. Cote, T. Deutsch, L. Genovese, Ph. Ghosez, M. Giantomassi
 S. Goedecker, D.R. Hamann, P. Hermet, F. Jollet, G. Jomard, S. Leroux, M. Mancini, S. Mazevet,
 M.J.T. Oliveira, G. Onida, Y. Pouillon, T. Rangel, G.-M. Rignanese, D. Sangalli, R. Shaltaf,
 M. Torrent, M.J. Verstraete, G. Zerah, J.W. Zwanziger
 Computer Phys. Comm. 180, 2582-2615 (2009).
 Comment : the third generic paper describing the ABINIT project.
 Note that a version of this paper, that is not formatted for Computer Phys. Comm.
 The licence allows the authors to put it on the Web.

 [3] A brief introduction to the ABINIT software package.
 X. Gonze, G.-M. Rignanese, M. Verstraete, J.-M. Beuken, Y. Pouillon, R. Caracas, F. Jollet,
 M. Torrent, G. Zerah, M. Mikami, Ph. Ghosez, M. Veithen, J.-Y. Raty, V. Olevano, F. Bruneval,
 L. Reining, R. Godby, G. Onida, D.R. Hamann, and D.C. Allan.
 Z. Kristallogr. 220, 558-562 (2005).
 Comment : the second generic paper describing the ABINIT project. Note that this paper
 should be cited especially if you are using the GW part of ABINIT, as several authors
 of this part are not in the list of authors of the first or third paper.
 Note that it should not redistributed (Copyright by Oldenburg Wissenshaftverlag,
 the licence allows the authors to put it on the Web).

 And optionally :

 [4] First-principles computation of material properties : the ABINIT software project.
 X. Gonze, J.-M. Beuken, R. Caracas, F. Detraux, M. Fuchs, G.-M. Rignanese, L. Sindic,
 M. Verstraete, G. Zerah, F. Jollet, M. Torrent, A. Roy, M. Mikami, Ph. Ghosez, J.-Y. Raty, D.C. Allan.
 Comment : the original paper describing the ABINIT project.

 [5] Fast radix 2, 3, 4 and 5 kernels for Fast Fourier Transformations
 on computers with overlapping multiply-add instructions.
 S. Goedecker, SIAM J. on Scientific Computing 18, 1605 (1997).

 Calculation completed.
.Delivered    3 WARNINGs and  12 COMMENTs to log file.