.Version 8.10.3 of ABINIT
.(sequential version, prepared for a x86_64_linux_gnu7.5 computer)

 ABINIT is a project of the Universite Catholique de Louvain,
 Corning Inc. and other collaborators, see ~abinit/doc/developers/contributors.txt .
 acknowledgments of the ABINIT effort.

.Starting date : Fri 26 Feb 2021.
- ( at 11h21 )

- input  file    -> Crt.in
- output file    -> Cr.out
- root for input  files -> Cr_i
- root for output files -> Cr_o

 DATASET   11 : space group Im -3 m (#229); Bravais cI (body-center cubic)
     intxc =       0    ionmov =       2      iscf =       7    lmnmax =       6
     lnmax =       6     mgfft =      48  mpssoang =       3    mqgrid =    3001
     natom =       1  nloc_mem =       1    nspden =       1   nspinor =       1
    nsppol =       1      nsym =      48    n1xccc =    2501    ntypat =       1
    occopt =       3   xclevel =       2
-    mband =          27        mffmem =           1         mkmem =          20
       mpw =        4442          nfft =      110592          nkpt =          20
  Rough estimation (10% accuracy) of disk space for files :

 DATASET   12 : space group Im -3 m (#229); Bravais cI (body-center cubic)
     intxc =       0    ionmov =       0      iscf =       7    lmnmax =       6
     lnmax =       6     mgfft =      48  mpssoang =       3    mqgrid =    3001
     natom =       1  nloc_mem =       1    nspden =       1   nspinor =       1
    nsppol =       1      nsym =      48    n1xccc =    2501    ntypat =       1
    occopt =       3   xclevel =       2
-    mband =          27        mffmem =           1         mkmem =          20
       mpw =        4442          nfft =      110592          nkpt =          20

  since getcell =  -1 is non-zero, while idtset=  2.
  The following numbers are obtained by supposing that acell and rprim
  are NOT taken from a previous dataset. You cannot rely on them.

  Rough estimation (10% accuracy) of disk space for files :

[...]

 DATASET   14 : space group Im -3 m (#229); Bravais cI (body-center cubic)
     intxc =       0      iscf =       7    lmnmax =       6     lnmax =       6
     mgfft =      48  mpssoang =       3    mqgrid =    3001     natom =       1
  nloc_mem =       1    nspden =       1   nspinor =       1    nsppol =       1
      nsym =      48    n1xccc =    2501    ntypat =       1    occopt =       3
   xclevel =       2
-    mband =          27        mffmem =           1         mkmem =         216
-   mkqmem =         216        mk1mem =         216           mpw =        4442
      nfft =      110592          nkpt =         216

 memorf : COMMENT -
  since getcell =  -1 is non-zero, while idtset=  4.
  The following numbers are obtained by supposing that acell and rprim
  are NOT taken from a previous dataset. You cannot rely on them.

[...]

 DATASET   33 : space group Im -3 m (#229); Bravais cI (body-center cubic)
     intxc =       0    ionmov =       0      iscf =       7    lmnmax =       6
     lnmax =       6     mgfft =      48  mpssoang =       3    mqgrid =    3001
     natom =       1  nloc_mem =       1    nspden =       1   nspinor =       1
    nsppol =       1      nsym =      48    n1xccc =    2501    ntypat =       1
    occopt =       3   xclevel =       2
-    mband =          27        mffmem =           1         mkmem =          70
       mpw =        4444          nfft =      110592          nkpt =          70

  since getcell =  -1 is non-zero, while idtset= 11.
  The following numbers are obtained by supposing that acell and rprim
  are NOT taken from a previous dataset. You cannot rely on them.

[...]

 DATASET   34 : space group Im -3 m (#229); Bravais cI (body-center cubic)
     intxc =       0      iscf =       7    lmnmax =       6     lnmax =       6
     mgfft =      48  mpssoang =       3    mqgrid =    3001     natom =       1
  nloc_mem =       1    nspden =       1   nspinor =       1    nsppol =       1
      nsym =      48    n1xccc =    2501    ntypat =       1    occopt =       3
   xclevel =       2
-    mband =          27        mffmem =           1         mkmem =        1000
-   mkqmem =        1000        mk1mem =        1000           mpw =        4444
      nfft =      110592          nkpt =        1000

 memorf : COMMENT -
  since getcell =  -1 is non-zero, while idtset= 12.
  The following numbers are obtained by supposing that acell and rprim
  are NOT taken from a previous dataset. You cannot rely on them.

  Rough estimation (10% accuracy) of disk space for files :

------------- Echo of variables that govern the present computation ------------
-
- outvars: echo of selected default values
-   iomode0 =  0 , fftalg0 =112 , wfoptalg0 =  0
-
- outvars: echo of global parameters not present in the input file
-  max_nthreads =    0
-
 -outvars: echo values of preprocessed input variables --------
            acell      5.7000000000E+00  5.7000000000E+00  5.7000000000E+00 Bohr
              amu      5.19961000E+01
             ecut      1.00000000E+02 Hartree
           ecutsm      5.00000000E-01 Hartree
-          fftalg         112
          getcell          -1
           getden11         0
           getden12         0
           getden13        -1
           getden14         0
           getden21         0
           getden22         0
           getden23        -1
           getden24         0
           getden31         0
           getden32         0
           getden33        -1
           getden34         0
           getwfk11         0
           getwfk12        -1
           getwfk13        -1
           getwfk14        -1
           getwfk21         0
           getwfk22        -1
           getwfk23        -1
           getwfk24        -1
           getwfk31         0
           getwfk32        -1
           getwfk33        -1
           getwfk34        -1
           ionmov11         2
           ionmov12         0
           ionmov13         0
           ionmov14         0
           ionmov21         2
           ionmov22         0
           ionmov23         0
           ionmov24         0
           ionmov31         2
           ionmov32         0
           ionmov33         0
           ionmov34         0
              ixc          11
           jdtset       11   12   13   14   21   22   23   24   31   32
                        33   34
              kpt11   -4.16666667E-02 -4.16666667E-02  1.25000000E-01
                      -4.16666667E-02 -4.16666667E-02  2.91666667E-01
                      -4.16666667E-02 -4.16666667E-02  4.58333333E-01
                      -1.25000000E-01 -1.25000000E-01  4.16666667E-02
                      -1.25000000E-01 -1.25000000E-01  3.75000000E-01
                      -4.16666667E-02 -2.08333333E-01  4.58333333E-01
                      -1.25000000E-01 -1.25000000E-01 -4.58333333E-01
                      -4.16666667E-02 -2.08333333E-01 -3.75000000E-01
                      -1.25000000E-01 -2.91666667E-01  4.16666667E-02
                      -2.08333333E-01 -2.08333333E-01  1.25000000E-01
                      -2.08333333E-01 -2.08333333E-01 -3.75000000E-01
                      -1.25000000E-01 -2.91666667E-01 -2.91666667E-01
                      -1.25000000E-01 -4.58333333E-01  4.16666667E-02
                      -2.91666667E-01 -2.91666667E-01  4.16666667E-02
                      -2.08333333E-01 -3.75000000E-01  1.25000000E-01
                      -2.91666667E-01 -2.91666667E-01  2.08333333E-01
                      -3.75000000E-01 -3.75000000E-01  1.25000000E-01
                      -2.91666667E-01 -4.58333333E-01  2.08333333E-01
                      -3.75000000E-01 -3.75000000E-01  2.91666667E-01
                      -4.58333333E-01 -4.58333333E-01  3.75000000E-01
              kpt12   -4.16666667E-02 -4.16666667E-02  1.25000000E-01
                      -4.16666667E-02 -4.16666667E-02  2.91666667E-01
                      -4.16666667E-02 -4.16666667E-02  4.58333333E-01
                      -1.25000000E-01 -1.25000000E-01  4.16666667E-02
                      -1.25000000E-01 -1.25000000E-01  3.75000000E-01
                      -4.16666667E-02 -2.08333333E-01  4.58333333E-01
                      -1.25000000E-01 -1.25000000E-01 -4.58333333E-01
                      -4.16666667E-02 -2.08333333E-01 -3.75000000E-01
                      -1.25000000E-01 -2.91666667E-01  4.16666667E-02
                      -2.08333333E-01 -2.08333333E-01  1.25000000E-01
                      -2.08333333E-01 -2.08333333E-01 -3.75000000E-01
                      -1.25000000E-01 -2.91666667E-01 -2.91666667E-01
                      -1.25000000E-01 -4.58333333E-01  4.16666667E-02
                      -2.91666667E-01 -2.91666667E-01  4.16666667E-02
                      -2.08333333E-01 -3.75000000E-01  1.25000000E-01
                      -2.91666667E-01 -2.91666667E-01  2.08333333E-01
                      -3.75000000E-01 -3.75000000E-01  1.25000000E-01
                      -2.91666667E-01 -4.58333333E-01  2.08333333E-01
                      -3.75000000E-01 -3.75000000E-01  2.91666667E-01
                      -4.58333333E-01 -4.58333333E-01  3.75000000E-01
              kpt13   -4.16666667E-02 -4.16666667E-02  1.25000000E-01
                      -4.16666667E-02 -4.16666667E-02  2.91666667E-01
                      -4.16666667E-02 -4.16666667E-02  4.58333333E-01
                      -1.25000000E-01 -1.25000000E-01  4.16666667E-02
                      -1.25000000E-01 -1.25000000E-01  3.75000000E-01
                      -4.16666667E-02 -2.08333333E-01  4.58333333E-01
                      -1.25000000E-01 -1.25000000E-01 -4.58333333E-01
                      -4.16666667E-02 -2.08333333E-01 -3.75000000E-01
                      -1.25000000E-01 -2.91666667E-01  4.16666667E-02
                      -2.08333333E-01 -2.08333333E-01  1.25000000E-01
                      -2.08333333E-01 -2.08333333E-01 -3.75000000E-01
                      -1.25000000E-01 -2.91666667E-01 -2.91666667E-01
                      -1.25000000E-01 -4.58333333E-01  4.16666667E-02
                      -2.91666667E-01 -2.91666667E-01  4.16666667E-02
                      -2.08333333E-01 -3.75000000E-01  1.25000000E-01
                      -2.91666667E-01 -2.91666667E-01  2.08333333E-01
                      -3.75000000E-01 -3.75000000E-01  1.25000000E-01
                      -2.91666667E-01 -4.58333333E-01  2.08333333E-01
                      -3.75000000E-01 -3.75000000E-01  2.91666667E-01
                      -4.58333333E-01 -4.58333333E-01  3.75000000E-01
              kpt14   -4.16666667E-02 -4.16666667E-02  1.25000000E-01
                      -4.16666667E-02 -4.16666667E-02  2.91666667E-01
                      -4.16666667E-02 -4.16666667E-02  4.58333333E-01
                      -4.16666667E-02 -4.16666667E-02 -3.75000000E-01
                      -4.16666667E-02 -4.16666667E-02 -2.08333333E-01
                      -4.16666667E-02 -4.16666667E-02 -4.16666667E-02
                      -1.25000000E-01 -1.25000000E-01  4.16666667E-02
                      -4.16666667E-02 -2.08333333E-01  1.25000000E-01
                      -2.08333333E-01 -4.16666667E-02  1.25000000E-01
[...]
            rfdir21         0       0       0
            rfdir22         0       0       0
            rfdir23         0       0       0
            rfdir24         1       0       0
            rfdir31         0       0       0
            rfdir32         0       0       0
            rfdir33         0       0       0
            rfdir34         1       0       0
           rfstrs11         0
           rfstrs12         0
           rfstrs13         0
           rfstrs14         3
           rfstrs21         0
           rfstrs22         0
           rfstrs23         0
           rfstrs24         3
           rfstrs31         0
           rfstrs32         0
           rfstrs33         0
           rfstrs34         3
            rprim     -5.0000000000E-01  5.0000000000E-01  5.0000000000E-01
                       5.0000000000E-01 -5.0000000000E-01  5.0000000000E-01
                       5.0000000000E-01  5.0000000000E-01 -5.0000000000E-01
           shiftk      5.00000000E-01  5.00000000E-01 -5.00000000E-01
          spgroup         229
           strten11   -4.5368508950E-10 -4.5368507562E-10 -4.5368508256E-10
                       0.0000000000E+00  0.0000000000E+00  0.0000000000E+00
           strten12   -4.5365593226E-10 -4.5365593920E-10 -4.5365593226E-10
                       0.0000000000E+00  0.0000000000E+00  0.0000000000E+00
           strten13   -4.5365471102E-10 -4.5365470408E-10 -4.5365469714E-10
                       0.0000000000E+00  0.0000000000E+00  0.0000000000E+00
           strten14    0.0000000000E+00  0.0000000000E+00  0.0000000000E+00
                       0.0000000000E+00  0.0000000000E+00  0.0000000000E+00
           strten21   -1.2163105592E-09 -1.2163105662E-09 -1.2163105592E-09
                       0.0000000000E+00  0.0000000000E+00  0.0000000000E+00
           strten22   -1.2164003346E-09 -1.2164003346E-09 -1.2164003277E-09
                       0.0000000000E+00  0.0000000000E+00  0.0000000000E+00
           strten23   -1.2163269975E-09 -1.2163270044E-09 -1.2163270044E-09
                       0.0000000000E+00  0.0000000000E+00  0.0000000000E+00
           strten24    0.0000000000E+00  0.0000000000E+00  0.0000000000E+00
                       0.0000000000E+00  0.0000000000E+00  0.0000000000E+00
           strten31    3.5542402355E-13  3.5542402355E-13  3.5541014576E-13
                       0.0000000000E+00  0.0000000000E+00  0.0000000000E+00
           strten32    3.5307173851E-13  3.5307867741E-13  3.5308561630E-13
                       0.0000000000E+00  0.0000000000E+00  0.0000000000E+00
           strten33    3.5089292583E-13  3.5089292583E-13  3.5089292583E-13
                       0.0000000000E+00  0.0000000000E+00  0.0000000000E+00
           strten34    0.0000000000E+00  0.0000000000E+00  0.0000000000E+00
                       0.0000000000E+00  0.0000000000E+00  0.0000000000E+00
           symrel      1  0  0   0  1  0   0  0  1      -1  0  0   0 -1  0   0  0 -1
                      -1 -1 -1   0  0  1   0  1  0       1  1  1   0  0 -1   0 -1  0
                       0  1  0   1  0  0  -1 -1 -1       0 -1  0  -1  0  0   1  1  1
                       0  0  1  -1 -1 -1   1  0  0       0  0 -1   1  1  1  -1  0  0
                       0  1  0   1  0  0   0  0  1       0 -1  0  -1  0  0   0  0 -1
                      -1 -1 -1   0  0  1   1  0  0       1  1  1   0  0 -1  -1  0  0
                       1  0  0   0  1  0  -1 -1 -1      -1  0  0   0 -1  0   1  1  1
                       0  0  1  -1 -1 -1   0  1  0       0  0 -1   1  1  1   0 -1  0
                      -1 -1 -1   1  0  0   0  0  1       1  1  1  -1  0  0   0  0 -1
                       0  1  0   0  0  1   1  0  0       0 -1  0   0  0 -1  -1  0  0
                       1  0  0  -1 -1 -1   0  1  0      -1  0  0   1  1  1   0 -1  0
                       0  0  1   0  1  0  -1 -1 -1       0  0 -1   0 -1  0   1  1  1
                       1  0  0  -1 -1 -1   0  0  1      -1  0  0   1  1  1   0  0 -1
                       0  1  0   0  0  1  -1 -1 -1       0 -1  0   0  0 -1   1  1  1
                      -1 -1 -1   1  0  0   0  1  0       1  1  1  -1  0  0   0 -1  0
                       0  0  1   0  1  0   1  0  0       0  0 -1   0 -1  0  -1  0  0
                       0  1  0  -1 -1 -1   0  0  1       0 -1  0   1  1  1   0  0 -1
                       1  0  0   0  0  1  -1 -1 -1      -1  0  0   0  0 -1   1  1  1
                      -1 -1 -1   0  1  0   1  0  0       1  1  1   0 -1  0  -1  0  0
                       0  0  1   1  0  0   0  1  0       0  0 -1  -1  0  0   0 -1  0
                      -1 -1 -1   0  1  0   0  0  1       1  1  1   0 -1  0   0  0 -1
                       1  0  0   0  0  1   0  1  0      -1  0  0   0  0 -1   0 -1  0
                       0  1  0  -1 -1 -1   1  0  0       0 -1  0   1  1  1  -1  0  0
                       0  0  1   1  0  0  -1 -1 -1       0  0 -1  -1  0  0   1  1  1
           tolmxf11    1.00000000E-06
           tolmxf12    5.00000000E-05
           tolmxf13    5.00000000E-05
           tolmxf14    5.00000000E-05
           tolmxf21    1.00000000E-06
           tolmxf22    5.00000000E-05
           tolmxf23    5.00000000E-05
           tolmxf24    5.00000000E-05
           tolmxf31    1.00000000E-06
           tolmxf32    5.00000000E-05
           tolmxf33    5.00000000E-05
           tolmxf34    5.00000000E-05
           tolvrs11    1.00000000E-18
           tolvrs12    1.00000000E-18
           tolvrs13    0.00000000E+00
           tolvrs14    1.00000000E-12
           tolvrs21    1.00000000E-18
           tolvrs22    1.00000000E-18
           tolvrs23    0.00000000E+00
           tolvrs24    1.00000000E-12
           tolvrs31    1.00000000E-18
           tolvrs32    1.00000000E-18
           tolvrs33    0.00000000E+00
           tolvrs34    1.00000000E-12
           tolwfr11    0.00000000E+00
           tolwfr12    0.00000000E+00
           tolwfr13    5.00000000E-19
           tolwfr14    0.00000000E+00
           tolwfr21    0.00000000E+00
           tolwfr22    0.00000000E+00
           tolwfr23    1.00000000E-31
           tolwfr24    0.00000000E+00
           tolwfr31    0.00000000E+00
           tolwfr32    0.00000000E+00
           tolwfr33    5.00000000E-19
           tolwfr34    0.00000000E+00
           tsmear      2.00000000E-02 Hartree
            typat      1
              wtk11      0.01852    0.05556    0.05556    0.05556    0.01852    0.05556
                         0.05556    0.05556    0.11111    0.05556    0.01852    0.01852
                         0.05556    0.05556    0.11111    0.05556    0.01852    0.05556
                         0.05556    0.01852
              wtk12      0.01852    0.05556    0.05556    0.05556    0.01852    0.05556
                         0.05556    0.05556    0.11111    0.05556    0.01852    0.01852
                         0.05556    0.05556    0.11111    0.05556    0.01852    0.05556
                         0.05556    0.01852
              wtk13      0.01852    0.05556    0.05556    0.05556    0.01852    0.05556
                         0.05556    0.05556    0.11111    0.05556    0.01852    0.01852
                         0.05556    0.05556    0.11111    0.05556    0.01852    0.05556
                         0.05556    0.01852
              wtk14      0.00463    0.00463    0.00463    0.00463    0.00463    0.00463
                         0.00463    0.00463    0.00463    0.00463    0.00463    0.00463
                         0.00463    0.00463    0.00463    0.00463    0.00463    0.00463
                         0.00463    0.00463    0.00463    0.00463    0.00463    0.00463
                         0.00463    0.00463    0.00463    0.00463    0.00463    0.00463
                         0.00463    0.00463    0.00463    0.00463    0.00463    0.00463
                         0.00463    0.00463    0.00463    0.00463    0.00463    0.00463
                         0.00463    0.00463    0.00463    0.00463    0.00463    0.00463
                         0.00463    0.00463
              wtk21      0.00781    0.02344    0.02344    0.02344    0.02344    0.00781
                         0.02344    0.02344    0.04688    0.02344    0.02344    0.04688
                         0.02344    0.00781    0.02344    0.02344    0.02344    0.02344
                         0.04688    0.02344    0.04688    0.02344    0.00781    0.00781
                         0.02344    0.04688    0.04688    0.02344    0.04688    0.02344
                         0.00781    0.02344    0.02344    0.02344    0.04688    0.02344
                         0.00781    0.02344    0.02344    0.00781
              wtk22      0.00781    0.02344    0.02344    0.02344    0.02344    0.00781
                         0.02344    0.02344    0.04688    0.02344    0.02344    0.04688
                         0.02344    0.00781    0.02344    0.02344    0.02344    0.02344
                         0.04688    0.02344    0.04688    0.02344    0.00781    0.00781
                         0.02344    0.04688    0.04688    0.02344    0.04688    0.02344
                         0.00781    0.02344    0.02344    0.02344    0.04688    0.02344
                         0.00781    0.02344    0.02344    0.00781
              wtk23      0.00781    0.02344    0.02344    0.02344    0.02344    0.00781
                         0.02344    0.02344    0.04688    0.02344    0.02344    0.04688
                         0.02344    0.00781    0.02344    0.02344    0.02344    0.02344
                         0.04688    0.02344    0.04688    0.02344    0.00781    0.00781
                         0.02344    0.04688    0.04688    0.02344    0.04688    0.02344
                         0.00781    0.02344    0.02344    0.02344    0.04688    0.02344
                         0.00781    0.02344    0.02344    0.00781
              wtk24      0.00195    0.00195    0.00195    0.00195    0.00195    0.00195
                         0.00195    0.00195    0.00195    0.00195    0.00195    0.00195
                         0.00195    0.00195    0.00195    0.00195    0.00195    0.00195
                         0.00195    0.00195    0.00195    0.00195    0.00195    0.00195
                         0.00195    0.00195    0.00195    0.00195    0.00195    0.00195
                         0.00195    0.00195    0.00195    0.00195    0.00195    0.00195
                         0.00195    0.00195    0.00195    0.00195    0.00195    0.00195
                         0.00195    0.00195    0.00195    0.00195    0.00195    0.00195
                         0.00195    0.00195
              wtk31      0.00400    0.01200    0.01200    0.01200    0.01200    0.01200
                         0.00400    0.01200    0.01200    0.02400    0.01200    0.02400
                         0.01200    0.01200    0.02400    0.01200    0.00400    0.01200
                         0.01200    0.01200    0.02400    0.02400    0.01200    0.01200
                         0.02400    0.01200    0.02400    0.01200    0.00400    0.01200
                         0.01200    0.00400    0.01200    0.01200    0.02400    0.02400
                         0.02400    0.01200    0.02400    0.01200    0.00400    0.00400
                         0.01200    0.02400    0.02400    0.01200    0.02400    0.02400
                         0.01200    0.02400
              wtk32      0.00400    0.01200    0.01200    0.01200    0.01200    0.01200
                         0.00400    0.01200    0.01200    0.02400    0.01200    0.02400
                         0.01200    0.01200    0.02400    0.01200    0.00400    0.01200
                         0.01200    0.01200    0.02400    0.02400    0.01200    0.01200
                         0.02400    0.01200    0.02400    0.01200    0.00400    0.01200
                         0.01200    0.00400    0.01200    0.01200    0.02400    0.02400
                         0.02400    0.01200    0.02400    0.01200    0.00400    0.00400
                         0.01200    0.02400    0.02400    0.01200    0.02400    0.02400
                         0.01200    0.02400
              wtk33      0.00400    0.01200    0.01200    0.01200    0.01200    0.01200
                         0.00400    0.01200    0.01200    0.02400    0.01200    0.02400
                         0.01200    0.01200    0.02400    0.01200    0.00400    0.01200
                         0.01200    0.01200    0.02400    0.02400    0.01200    0.01200
                         0.02400    0.01200    0.02400    0.01200    0.00400    0.01200
                         0.01200    0.00400    0.01200    0.01200    0.02400    0.02400
                         0.02400    0.01200    0.02400    0.01200    0.00400    0.00400
                         0.01200    0.02400    0.02400    0.01200    0.02400    0.02400
                         0.01200    0.02400
              wtk34      0.00100    0.00100    0.00100    0.00100    0.00100    0.00100
                         0.00100    0.00100    0.00100    0.00100    0.00100    0.00100
                         0.00100    0.00100    0.00100    0.00100    0.00100    0.00100
                         0.00100    0.00100    0.00100    0.00100    0.00100    0.00100
                         0.00100    0.00100    0.00100    0.00100    0.00100    0.00100
                         0.00100    0.00100    0.00100    0.00100    0.00100    0.00100
                         0.00100    0.00100    0.00100    0.00100    0.00100    0.00100
                         0.00100    0.00100    0.00100    0.00100    0.00100    0.00100
                         0.00100    0.00100
                       outvars : Printing only first  50 k-points.
            znucl       24.00000

-
-  as well as % of the time and number of calls for node 0-
-<BEGIN_TIMER mpi_nprocs = 1, omp_nthreads = 1, mpi_rank = 0>
- cpu_time =        10571.3, wall_time =         5216.5
-
-                                                                  (-1=no count)
- fourwf%(pot)                4860.104  46.0   2356.160  45.2        1874600      -1.00        2.06       2.06
- projbd                      1921.638  18.2   1084.324  20.8        2801365      -1.00        1.77       1.77
- nonlop(apply)                951.157   9.0    436.305   8.4        1673504      -1.00        2.18       2.18
- nonlop(forces)               758.782   7.2    254.380   4.9         450954      -1.00        2.98       2.98
- vtowfk(ssdiag)               583.332   5.5     98.999   1.9             -1      -1.00        5.89       5.89
- fourwf%(G->r)                179.442   1.7    179.295   3.4         241296      -1.00        1.00       1.00
- fourwf%(den)                 121.293   1.1     84.305   1.6         118176      -1.00        1.44       1.44
- getghc-other                  79.658   0.8     33.646   0.6             -1      -1.00        2.37       2.37
- dfpt_cgwf-O(npw)              57.386   0.5     56.568   1.1             -1      -1.00        1.01       1.01
- others (104)                 141.776   1.3    100.183   1.9             -1      -1.00        1.42       1.42
-<END_TIMER>
-
- subtotal                    9654.568  91.3   4684.165  89.8                                  2.06       2.06

- as well as % of the total time and number of calls

-<BEGIN_TIMER mpi_nprocs = 1, omp_nthreads = 1, mpi_rank = world>
- cpu_time =       10571.3, wall_time =        5216.5
-
-                                                                  (-1=no count)
- fourwf%(pot)                4860.104  46.0   2356.160  45.2        1874600      -1.00        2.06       2.06
- projbd                      1921.638  18.2   1084.324  20.8        2801365      -1.00        1.77       1.77
- nonlop(apply)                951.157   9.0    436.305   8.4        1673504      -1.00        2.18       2.18
- nonlop(forces)               758.782   7.2    254.380   4.9         450954      -1.00        2.98       2.98
- vtowfk(ssdiag)               583.332   5.5     98.999   1.9             -1      -1.00        5.89       5.89
- fourwf%(G->r)                179.442   1.7    179.295   3.4         241296      -1.00        1.00       1.00
- fourwf%(den)                 121.293   1.1     84.305   1.6         118176      -1.00        1.44       1.44
- getghc-other                  79.658   0.8     33.646   0.6             -1      -1.00        2.37       2.37
- dfpt_cgwf-O(npw)              57.386   0.5     56.568   1.1             -1      -1.00        1.01       1.01
- others (104)                 141.776   1.3    100.183   1.9             -1      -1.00        1.42       1.42
-<END_TIMER>

- subtotal                    9654.568  91.3   4684.165  89.8                                  2.06       2.06

 Suggested references for the acknowledgment of ABINIT usage.

 Calculation completed.
.Delivered  79 WARNINGs and  47 COMMENTs to log file.