.Version 7.6.4 of ABINIT

 ABINIT is a project of the Universite Catholique de Louvain,
 Corning Inc. and other collaborators, see ~abinit/doc/developers/contributors.txt .
 Please read ~abinit/doc/users/acknowledgments.html for suggested
 acknowledgments of the ABINIT effort.

.Starting date : Mon 26 May 2014.
- ( at 10h09 )

 === Build Information ===
  Version       : 7.6.4
  Build target  : x86_64_linux_gnu4.4
  Build date    : 20140520

 === Optimizations ===
  Debug level        : basic
  Optimization level : standard
  Architecture       : unknown_unknown

 === Multicore ===
  Parallel build : yes
  Parallel I/O   : yes
  Time tracing   : no
  openMP support : no
  GPU support    : no

 === Connectors / Fallbacks ===
  Connectors on : yes
  Fallbacks on  : yes
  FFT flavor    : fftw3
  LINALG flavor : atlas
  MATH flavor   : gsl
  TIMER flavor  : abinit
  TRIO flavor   : netcdf+etsf_io-fallback+fox-fallback

 === Experimental features ===
  Bindings            : no
  Exports             : yes
  GW double-precision : yes

 Default optimizations:
   -O2 -mtune=native -march=native

 CPP options activated during the build:

                    CC_GNU                   CXX_GNU                    FC_GNU

                 HAVE_ALGO          HAVE_ALGO_LEVMAR          HAVE_ALGO_SERIAL

                 HAVE_CLIB          HAVE_DFT_ATOMPAW           HAVE_DFT_BIGDFT

  HAVE_FC_COMMAND_ARGUMENT           HAVE_FC_CPUTIME              HAVE_FC_EXIT

             HAVE_FC_FLUSH             HAVE_FC_GAMMA            HAVE_FC_GETENV

          HAVE_FC_INT_QUAD             HAVE_FC_IOMSG     HAVE_FC_ISO_C_BINDING

        HAVE_FC_LONG_LINES              HAVE_FC_NULL         HAVE_FC_STREAM_IO

            HAVE_FC_SYSTEM                  HAVE_FFT            HAVE_FFT_FFTW3

              HAVE_FFT_MPI           HAVE_FFT_SERIAL          HAVE_FORTRAN2003

               HAVE_GW_DPC        HAVE_LIBPAW_ABINIT               HAVE_LINALG

        HAVE_LINALG_SERIAL                 HAVE_MATH             HAVE_MATH_GSL

          HAVE_MATH_SERIAL                  HAVE_MPI                 HAVE_MPI2

               HAVE_MPI_IO HAVE_MPI_TYPE_CREATE_S...             HAVE_OS_LINUX

                HAVE_TIMER         HAVE_TIMER_ABINIT            HAVE_TIMER_MPI

         HAVE_TIMER_SERIAL         HAVE_TRIO_ETSF_IO             HAVE_TRIO_FOX

          HAVE_TRIO_NETCDF              USE_MACROAVE

- input  file    -> Ga4P3Ti_lda_gw_band-4.in
- output file    -> Ga4P3Ti_lda_gw_band-4.out
- root for input  files -> Ga4P3Ti_lda_gw_band-4i
- root for output files -> Ga4P3Ti_lda_gw_band-4o

-instrng :   126 lines of input have been read from file Ga4P3Ti_lda_gw_band-4.in

 iofn2 : Please give name of formatted atomic psp file
 iofn2 : for atom type   1 , psp file is /home/thanusit/psp/31-Ga.LDA.fhi

 iofn2 : Please give name of formatted atomic psp file
 iofn2 : for atom type   2 , psp file is /home/thanusit/psp/15-P.LDA.fhi

 iofn2 : Please give name of formatted atomic psp file
 iofn2 : for atom type   3 , psp file is /home/thanusit/psp/22-Ti.LDA.fhi
  read the values zionpsp=  3.0 , pspcod=   6 , lmax=   3
  read the values zionpsp=  5.0 , pspcod=   6 , lmax=   3
  read the values zionpsp=  4.0 , pspcod=   6 , lmax=   3

 inpspheads : deduce mpsang  =   4, n1xccc  =   0.

 invars1m : enter jdtset=0
 invars1 : treat image number     1

 symlatt : the Bravais lattice is cP (primitive cubic)
  xred   is defined in input file
 ingeo : takes atomic coordinates from input array xred

 symlatt : the Bravais lattice is cP (primitive cubic)

 symlatt : the Bravais lattice is cP (primitive cubic)
 symspgr : spgroup= 215  P-4 3 m   (=Td^1)
 getkgrid : length of smallest supercell vector (bohr)=    4.132000E+01
       Simple Lattice Grid
 symkpt : found identity, with number  1
 getkgrid : length of smallest supercell vector (bohr)=    4.132000E+01
       Simple Lattice Grid
 symkpt : found identity, with number  1
  dtset%nelect=   31.000000000000000
 chkneu : initialized the occupation numbers for occopt=    3
    spin-unpolarized case :
  2.00  2.00  2.00  2.00  2.00  2.00  2.00  2.00  2.00  2.00  2.00  2.00
  2.00  2.00  2.00  1.00  0.00  0.00  0.00  0.00  0.00  0.00  0.00  0.00
  0.00  0.00  0.00  0.00  0.00  0.00  0.00  0.00  0.00  0.00  0.00  0.00
  0.00  0.00  0.00  0.00  0.00  0.00  0.00  0.00  0.00  0.00  0.00  0.00
  0.00  0.00  0.00  0.00  0.00  0.00  0.00  0.00  0.00  0.00  0.00  0.00
  0.00  0.00  0.00  0.00
 setshells : ecut_trial =    12.00

--- !WARNING
message: |
    The value ecutwfn=  0.120000E+02 given in the input file leads to
     the same values for nshwfn and npwwfn as ecutwfn=  0.118388E+02
     This value will be adopted for the calculation.

src_file: m_gsphere.F90
src_line: 2710
...

 setshells : ecut_trial =     8.00
 setshells : ecut_trial =    12.00

--- !WARNING
message: |
    The value ecutsigx=  0.120000E+02 given in the input file leads to
     the same values for nshsigx and npwsigx as ecutsigx=  0.118388E+02
     This value will be adopted for the calculation.

src_file: m_gsphere.F90
src_line: 2710
...

npfft, npband, npspinor and npkpt:     1    1    1   16

--- !WARNING
message: |
    nproc_kpt=16 >= nkpt=10* nsppol=1
src_file: distrb2.F90
src_line: 106
...

mpi_setup: mkmem  undefined in the input file.Use default mkmem  = nkpt
 mpi_setup: With nkpt_me=1 and mkmem  = 10, ground state wf handled in core.

--- !WARNING
message: |
    Your number of k-points (10) will not distribute correctly
    You will leave some empty.
src_file: mpi_setup.F90
src_line: 601
...

mpi_setup: mkqmem undefined in the input file.Use default mkqmem = nkpt
 mpi_setup: With nkpt_me=1 and mkqmem = 10, ground state wf handled in core.

[...]

mpi_setup: mk1mem undefined in the input file.Use default mk1mem = nkpt
 mpi_setup: With nkpt_me=1 and mk1mem = 10, ground state wf handled in core.

--- !WARNING
message: |
    Your number of k-points (10) will not distribute correctly
    You will leave some empty.
src_file: mpi_setup.F90
src_line: 601
...

 For input ecut=  1.305232E+01 best grid ngfft=      36      36      36
       max ecut=  1.498353E+01

 ==== FFT mesh ====
  FFT mesh divisions ........................    36   36   36
  Augmented FFT divisions ...................    37   37   36
  FFT algorithm .............................   312
  FFT cache size ............................    16
 getmpw: optimal value of mpw=    2517

 Symmetries : space group P-4 3 m (#215); Bravais cP (primitive cubic)

 getdim_nloc : deduce lmnmax  =  16, lnmax  =   4,
                      lmnmaxso=  16, lnmaxso=   4.
   intxc =         0  ionmov =         0    iscf =         7 xclevel =         1
  lmnmax =         4   lnmax =         4   mband =        64  mffmem =         1
P  mgfft =        36   mkmem =         1 mpssoang=         4     mpw =      2517
  mqgrid =      3001   natom =         8    nfft =     46656    nkpt =        10
  nloalg =         4  nspden =         1 nspinor =         1  nsppol =         1
    nsym =        24  n1xccc =         0  ntypat =         3  occopt =         3
  Rough estimation (10% accuracy) of disk space for files :

 The job will continue.
------------- Echo of variables that govern the present computation ------------
-
- outvars: echo of selected default values
-   accesswff0 =  0 , fftalg0 =312 , wfoptalg0 =  0
-
- outvars: echo of global parameters not present in the input file
-  max_nthreads =    0
-
 -outvars: echo values of preprocessed input variables --------

 These variables are accessible in NetCDF format (Ga4P3Ti_lda_gw_band-4o_OUT.nc)

            acell      1.0330000000E+01  1.0330000000E+01  1.0330000000E+01 Bohr
              amu      6.97230000E+01  3.09737620E+01  4.78800000E+01
             bdgw           1      27       1      27       1      27       1      27
                            1      27       1      27       1      27       1      27
                            1      27       1      27
          dilatmx      1.05000000E+00
             ecut      1.18388378E+01 Hartree
          ecuteps      7.95421917E+00 Hartree
         ecutsigx      1.18388378E+01 Hartree
           ecutsm      5.00000000E-01 Hartree
          ecutwfn      1.18388378E+01 Hartree
           gwpara           2
           irdscr           1
           istwfk        1    0    1    0    0    1    0    0    0    1
              ixc           7
              kpt      0.00000000E+00  0.00000000E+00  0.00000000E+00
                       2.50000000E-01  0.00000000E+00  0.00000000E+00
                       5.00000000E-01  0.00000000E+00  0.00000000E+00
                       2.50000000E-01  2.50000000E-01  0.00000000E+00
                       5.00000000E-01  2.50000000E-01  0.00000000E+00
                       5.00000000E-01  5.00000000E-01  0.00000000E+00
                       2.50000000E-01  2.50000000E-01  2.50000000E-01
                       5.00000000E-01  2.50000000E-01  2.50000000E-01
                       5.00000000E-01  5.00000000E-01  2.50000000E-01
                       5.00000000E-01  5.00000000E-01  5.00000000E-01
            kptgw      0.00000000E+00  0.00000000E+00  0.00000000E+00
                       2.50000000E-01  0.00000000E+00  0.00000000E+00
                       5.00000000E-01  0.00000000E+00  0.00000000E+00
                       2.50000000E-01  2.50000000E-01  0.00000000E+00
                       5.00000000E-01  2.50000000E-01  0.00000000E+00
                       5.00000000E-01  5.00000000E-01  0.00000000E+00
                       2.50000000E-01  2.50000000E-01  2.50000000E-01
                       5.00000000E-01  2.50000000E-01  2.50000000E-01
                       5.00000000E-01  5.00000000E-01  2.50000000E-01
                       5.00000000E-01  5.00000000E-01  5.00000000E-01
         kptrlatt        4    0    0      0    4    0      0    0    4
          kptrlen      4.13200000E+01
P           mkmem           1
            natom           8
            nband          64
            ngfft          36      36      36
             nkpt          10
           nkptgw          10
           npweps        1213
          npwsigx        2109
           npwwfn        2109
           nsheps          79
          nshsigx         128
            nstep         300
             nsym          24
           ntypat           3
              occ      2.000000  2.000000  2.000000  2.000000  2.000000  2.000000
                       2.000000  2.000000  2.000000  2.000000  2.000000  2.000000
                       2.000000  2.000000  2.000000  1.000000  0.000000  0.000000
                       0.000000  0.000000  0.000000  0.000000  0.000000  0.000000
                       0.000000  0.000000  0.000000  0.000000  0.000000  0.000000
                       0.000000  0.000000  0.000000  0.000000  0.000000  0.000000
                       0.000000  0.000000  0.000000  0.000000  0.000000  0.000000
                       0.000000  0.000000  0.000000  0.000000  0.000000  0.000000
                       0.000000  0.000000  0.000000  0.000000  0.000000  0.000000
                       0.000000  0.000000  0.000000  0.000000  0.000000  0.000000
[...]

 These variables are accessible in NetCDF format (Ga4P3Ti_lda_gw_band-4o_OUT.nc)

            acell      1.0330000000E+01  1.0330000000E+01  1.0330000000E+01 Bohr
              amu      6.97230000E+01  3.09737620E+01  4.78800000E+01
             bdgw           1      27       1      27       1      27       1      27
                            1      27       1      27       1      27       1      27
                            1      27       1      27
          dilatmx      1.05000000E+00
             ecut      1.18388378E+01 Hartree
          ecuteps      7.95421917E+00 Hartree
         ecutsigx      1.18388378E+01 Hartree
           ecutsm      5.00000000E-01 Hartree
          ecutwfn      1.18388378E+01 Hartree
           etotal      0.0000000000E+00
            fcart      0.0000000000E+00  0.0000000000E+00  0.0000000000E+00
                       0.0000000000E+00  0.0000000000E+00  0.0000000000E+00
                       0.0000000000E+00  0.0000000000E+00  0.0000000000E+00
                       0.0000000000E+00  0.0000000000E+00  0.0000000000E+00
                       0.0000000000E+00  0.0000000000E+00  0.0000000000E+00
                       0.0000000000E+00  0.0000000000E+00  0.0000000000E+00
                       0.0000000000E+00  0.0000000000E+00  0.0000000000E+00
                       0.0000000000E+00  0.0000000000E+00  0.0000000000E+00
           gwpara           2
           irdscr           1
           istwfk        1    0    1    0    0    1    0    0    0    1
              ixc           7
              kpt      0.00000000E+00  0.00000000E+00  0.00000000E+00
                       2.50000000E-01  0.00000000E+00  0.00000000E+00
                       5.00000000E-01  0.00000000E+00  0.00000000E+00
                       2.50000000E-01  2.50000000E-01  0.00000000E+00
                       5.00000000E-01  2.50000000E-01  0.00000000E+00
                       5.00000000E-01  5.00000000E-01  0.00000000E+00
                       2.50000000E-01  2.50000000E-01  2.50000000E-01
                       5.00000000E-01  2.50000000E-01  2.50000000E-01
                       5.00000000E-01  5.00000000E-01  2.50000000E-01
                       5.00000000E-01  5.00000000E-01  5.00000000E-01
            kptgw      0.00000000E+00  0.00000000E+00  0.00000000E+00
                       2.50000000E-01  0.00000000E+00  0.00000000E+00
                       5.00000000E-01  0.00000000E+00  0.00000000E+00
                       2.50000000E-01  2.50000000E-01  0.00000000E+00
                       5.00000000E-01  2.50000000E-01  0.00000000E+00
                       5.00000000E-01  5.00000000E-01  0.00000000E+00
                       2.50000000E-01  2.50000000E-01  2.50000000E-01
                       5.00000000E-01  2.50000000E-01  2.50000000E-01
                       5.00000000E-01  5.00000000E-01  2.50000000E-01
                       5.00000000E-01  5.00000000E-01  5.00000000E-01
         kptrlatt        4    0    0      0    4    0      0    0    4
          kptrlen      4.13200000E+01
P           mkmem           1
            natom           8
            nband          64
            ngfft          36      36      36
             nkpt          10
           nkptgw          10
           npweps        1213
          npwsigx        2109
           npwwfn        2109
           nsheps          79
          nshsigx         128
            nstep         300
             nsym          24
           ntypat           3
              occ      2.000000  2.000000  2.000000  2.000000  2.000000  2.000000
                       2.000000  2.000000  2.000000  2.000000  2.000000  2.000000
                       2.000000  2.000000  2.000000  1.000000  0.000000  0.000000
                       0.000000  0.000000  0.000000  0.000000  0.000000  0.000000
                       0.000000  0.000000  0.000000  0.000000  0.000000  0.000000
                       0.000000  0.000000  0.000000  0.000000  0.000000  0.000000
                       0.000000  0.000000  0.000000  0.000000  0.000000  0.000000
                       0.000000  0.000000  0.000000  0.000000  0.000000  0.000000
                       0.000000  0.000000  0.000000  0.000000  0.000000  0.000000
                       0.000000  0.000000  0.000000  0.000000  0.000000  0.000000
                       0.000000  0.000000  0.000000  0.000000
                       2.000000  2.000000  2.000000  2.000000  2.000000  2.000000
                       2.000000  2.000000  2.000000  2.000000  2.000000  2.000000
                       2.000000  2.000000  2.000000  1.000000  0.000000  0.000000
                       0.000000  0.000000  0.000000  0.000000  0.000000  0.000000
                       0.000000  0.000000  0.000000  0.000000  0.000000  0.000000
                       0.000000  0.000000  0.000000  0.000000  0.000000  0.000000
                       0.000000  0.000000  0.000000  0.000000  0.000000  0.000000
                       0.000000  0.000000  0.000000  0.000000  0.000000  0.000000
                       0.000000  0.000000  0.000000  0.000000  0.000000  0.000000
                       0.000000  0.000000  0.000000  0.000000  0.000000  0.000000
                       0.000000  0.000000  0.000000  0.000000
                       2.000000  2.000000  2.000000  2.000000  2.000000  2.000000
                       2.000000  2.000000  2.000000  2.000000  2.000000  2.000000
                       2.000000  2.000000  2.000000  1.000000  0.000000  0.000000
                       0.000000  0.000000  0.000000  0.000000  0.000000  0.000000
                       0.000000  0.000000  0.000000  0.000000  0.000000  0.000000
                       0.000000  0.000000  0.000000  0.000000  0.000000  0.000000
                       0.000000  0.000000  0.000000  0.000000  0.000000  0.000000
                       0.000000  0.000000  0.000000  0.000000  0.000000  0.000000
                       0.000000  0.000000  0.000000  0.000000  0.000000  0.000000
                       0.000000  0.000000  0.000000  0.000000  0.000000  0.000000
                       0.000000  0.000000  0.000000  0.000000
                       2.000000  2.000000  2.000000  2.000000  2.000000  2.000000
                       2.000000  2.000000  2.000000  2.000000  2.000000  2.000000
                       2.000000  2.000000  2.000000  1.000000  0.000000  0.000000
                       0.000000  0.000000  0.000000  0.000000  0.000000  0.000000
                       0.000000  0.000000  0.000000  0.000000  0.000000  0.000000
                       0.000000  0.000000  0.000000  0.000000  0.000000  0.000000
                       0.000000  0.000000  0.000000  0.000000  0.000000  0.000000
                       0.000000  0.000000  0.000000  0.000000  0.000000  0.000000
                       0.000000  0.000000  0.000000  0.000000  0.000000  0.000000
                       0.000000  0.000000  0.000000  0.000000  0.000000  0.000000
                       0.000000  0.000000  0.000000  0.000000
                       2.000000  2.000000  2.000000  2.000000  2.000000  2.000000
                       2.000000  2.000000  2.000000  2.000000  2.000000  2.000000
                       2.000000  2.000000  2.000000  1.000000  0.000000  0.000000
                       0.000000  0.000000  0.000000  0.000000  0.000000  0.000000
                       0.000000  0.000000  0.000000  0.000000  0.000000  0.000000
                       0.000000  0.000000  0.000000  0.000000  0.000000  0.000000
                       0.000000  0.000000  0.000000  0.000000  0.000000  0.000000
                       0.000000  0.000000  0.000000  0.000000  0.000000  0.000000
                       0.000000  0.000000  0.000000  0.000000  0.000000  0.000000
                       0.000000  0.000000  0.000000  0.000000  0.000000  0.000000
                       0.000000  0.000000  0.000000  0.000000
                       2.000000  2.000000  2.000000  2.000000  2.000000  2.000000
                       2.000000  2.000000  2.000000  2.000000  2.000000  2.000000
                       2.000000  2.000000  2.000000  1.000000  0.000000  0.000000
                       0.000000  0.000000  0.000000  0.000000  0.000000  0.000000
                       0.000000  0.000000  0.000000  0.000000  0.000000  0.000000
                       0.000000  0.000000  0.000000  0.000000  0.000000  0.000000
[...]
                       0.000000  0.000000  0.000000  0.000000  0.000000  0.000000
                       0.000000  0.000000  0.000000  0.000000  0.000000  0.000000
                       0.000000  0.000000  0.000000  0.000000  0.000000  0.000000
                       0.000000  0.000000  0.000000  0.000000
                       2.000000  2.000000  2.000000  2.000000  2.000000  2.000000
                       2.000000  2.000000  2.000000  2.000000  2.000000  2.000000
                       2.000000  2.000000  2.000000  1.000000  0.000000  0.000000
                       0.000000  0.000000  0.000000  0.000000  0.000000  0.000000
                       0.000000  0.000000  0.000000  0.000000  0.000000  0.000000
                       0.000000  0.000000  0.000000  0.000000  0.000000  0.000000
                       0.000000  0.000000  0.000000  0.000000  0.000000  0.000000
                       0.000000  0.000000  0.000000  0.000000  0.000000  0.000000
                       0.000000  0.000000  0.000000  0.000000  0.000000  0.000000
                       0.000000  0.000000  0.000000  0.000000  0.000000  0.000000
                       0.000000  0.000000  0.000000  0.000000
           occopt           3
        optdriver           4
        optforces           1
           prtvol           1
          spgroup         215
           strten      0.0000000000E+00  0.0000000000E+00  0.0000000000E+00
                       0.0000000000E+00  0.0000000000E+00  0.0000000000E+00
           symrel      1  0  0   0  1  0   0  0  1      -1  0  0   0  1  0   0  0 -1
                      -1  0  0   0 -1  0   0  0  1       1  0  0   0 -1  0   0  0 -1
                       0  1  0   1  0  0   0  0  1       0 -1  0   1  0  0   0  0 -1
                       0 -1  0  -1  0  0   0  0  1       0  1  0  -1  0  0   0  0 -1
                       0  0  1   1  0  0   0  1  0       0  0 -1   1  0  0   0 -1  0
                       0  0 -1  -1  0  0   0  1  0       0  0  1  -1  0  0   0 -1  0
                       1  0  0   0  0  1   0  1  0      -1  0  0   0  0  1   0 -1  0
                      -1  0  0   0  0 -1   0  1  0       1  0  0   0  0 -1   0 -1  0
                       0  1  0   0  0  1   1  0  0       0 -1  0   0  0  1  -1  0  0
                       0 -1  0   0  0 -1   1  0  0       0  1  0   0  0 -1  -1  0  0
                       0  0  1   0  1  0   1  0  0       0  0 -1   0  1  0  -1  0  0
                       0  0 -1   0 -1  0   1  0  0       0  0  1   0 -1  0  -1  0  0
         symsigma        1
            tnons      0.0000000  0.0000000  0.0000000     0.5000000  0.0000000  0.5000000
                       0.5000000  0.5000000  0.0000000     0.0000000  0.5000000  0.5000000
                       0.0000000  0.0000000  0.0000000     0.0000000  0.5000000  0.5000000
                       0.5000000  0.5000000  0.0000000     0.5000000  0.0000000  0.5000000
                       0.0000000  0.0000000  0.0000000     0.0000000  0.5000000  0.5000000
                       0.5000000  0.0000000  0.5000000     0.5000000  0.5000000  0.0000000
                       0.0000000  0.0000000  0.0000000     0.5000000  0.5000000  0.0000000
                       0.5000000  0.0000000  0.5000000     0.0000000  0.5000000  0.5000000
                       0.0000000  0.0000000  0.0000000     0.5000000  0.5000000  0.0000000
                       0.0000000  0.5000000  0.5000000     0.5000000  0.0000000  0.5000000
                       0.0000000  0.0000000  0.0000000     0.5000000  0.0000000  0.5000000
                       0.0000000  0.5000000  0.5000000     0.5000000  0.5000000  0.0000000
           tolwfr      1.00000000E-10
           tsmear      1.00000000E-02 Hartree
            typat      1  1  1  1  3  2  2  2
              wtk        0.01563    0.09375    0.04688    0.18750    0.18750    0.04688
                         0.12500    0.18750    0.09375    0.01563
           xangst     -6.5670357011E-02 -6.5670357011E-02 -6.5670357011E-02
                       2.7988706394E+00  2.7988706394E+00 -6.5670357011E-02
                       2.7988706394E+00 -6.5670357011E-02  2.7988706394E+00
                      -6.5670357011E-02  2.7988706394E+00  2.7988706394E+00
                       1.3666001412E+00  1.3666001412E+00  1.3666001412E+00
                       1.3666001412E+00  4.0998004236E+00  4.0998004236E+00
                       4.0998004236E+00  1.3666001412E+00  4.0998004236E+00
                       4.0998004236E+00  4.0998004236E+00  1.3666001412E+00
            xcart     -1.2409898980E-01 -1.2409898980E-01 -1.2409898980E-01
                       5.2890989898E+00  5.2890989898E+00 -1.2409898980E-01
                       5.2890989898E+00 -1.2409898980E-01  5.2890989898E+00
                      -1.2409898980E-01  5.2890989898E+00  5.2890989898E+00
                       2.5825000000E+00  2.5825000000E+00  2.5825000000E+00
                       2.5825000000E+00  7.7475000000E+00  7.7475000000E+00
                       7.7475000000E+00  2.5825000000E+00  7.7475000000E+00
                       7.7475000000E+00  7.7475000000E+00  2.5825000000E+00
             xred     -1.2013454966E-02 -1.2013454966E-02 -1.2013454966E-02
                       5.1201345497E-01  5.1201345497E-01 -1.2013454966E-02
                       5.1201345497E-01 -1.2013454966E-02  5.1201345497E-01
                      -1.2013454966E-02  5.1201345497E-01  5.1201345497E-01
                       2.5000000000E-01  2.5000000000E-01  2.5000000000E-01
                       2.5000000000E-01  7.5000000000E-01  7.5000000000E-01
                       7.5000000000E-01  2.5000000000E-01  7.5000000000E-01
                       7.5000000000E-01  7.5000000000E-01  2.5000000000E-01
            znucl       31.00000   15.00000   22.00000

 Suggested references for the acknowledgment of ABINIT usage.

 [1] Ab initio pseudopotentials for electronic structure calculations of poly-atomic systems,
 using density-functional theory.
 M. Fuchs, M. Scheffler, Comput. Phys. Commun. 119, 67 (1999).
 Comment : Some pseudopotential generated using the FHI code were used.

 [2] ABINIT : First-principles approach of materials and nanosystem properties.
 X. Gonze, B. Amadon, P.-M. Anglade, J.-M. Beuken, F. Bottin, P. Boulanger, F. Bruneval,
 D. Caliste, R. Caracas, M. Cote, T. Deutsch, L. Genovese, Ph. Ghosez, M. Giantomassi
 S. Goedecker, D.R. Hamann, P. Hermet, F. Jollet, G. Jomard, S. Leroux, M. Mancini, S. Mazevet,
 M.J.T. Oliveira, G. Onida, Y. Pouillon, T. Rangel, G.-M. Rignanese, D. Sangalli, R. Shaltaf,
 M. Torrent, M.J. Verstraete, G. Zerah, J.W. Zwanziger
 Computer Phys. Comm. 180, 2582-2615 (2009).
 Comment : the third generic paper describing the ABINIT project.
 Note that a version of this paper, that is not formatted for Computer Phys. Comm.
 The licence allows the authors to put it on the Web.

 [3] A brief introduction to the ABINIT software package.
 X. Gonze, G.-M. Rignanese, M. Verstraete, J.-M. Beuken, Y. Pouillon, R. Caracas, F. Jollet,
 M. Torrent, G. Zerah, M. Mikami, Ph. Ghosez, M. Veithen, J.-Y. Raty, V. Olevano, F. Bruneval,
 L. Reining, R. Godby, G. Onida, D.R. Hamann, and D.C. Allan.
 Z. Kristallogr. 220, 558-562 (2005).
 Comment : the second generic paper describing the ABINIT project. Note that this paper
 should be cited especially if you are using the GW part of ABINIT, as several authors
 of this part are not in the list of authors of the first or third paper.
 Note that it should not redistributed (Copyright by Oldenburg Wissenshaftverlag,
 the licence allows the authors to put it on the Web).

 And optionally :

 [4] First-principles computation of material properties : the ABINIT software project.
 X. Gonze, J.-M. Beuken, R. Caracas, F. Detraux, M. Fuchs, G.-M. Rignanese, L. Sindic,
 M. Verstraete, G. Zerah, F. Jollet, M. Torrent, A. Roy, M. Mikami, Ph. Ghosez, J.-Y. Raty, D.C. Allan.
 Comment : the original paper describing the ABINIT project.

 [5] Fast radix 2, 3, 4 and 5 kernels for Fast Fourier Transformations
 on computers with overlapping multiply-add instructions.
 S. Goedecker, SIAM J. on Scientific Computing 18, 1605 (1997).

 Calculation completed.
.Delivered    0 WARNINGs and   0 COMMENTs to log file.
--- !FinalSummary
start_date: Mon May 26 10: 9:39 2014
end_date: Mon May 26 12:51:57 2014
overall_cpu_time:      155473.3
overall_wall_time:      155801.5
...