.Version 7.10.5 of ABINIT

 ABINIT is a project of the Universite Catholique de Louvain,
 Corning Inc. and other collaborators, see ~abinit/doc/developers/contributors.txt .
 Please read ~abinit/doc/users/acknowledgments.html for suggested
 acknowledgments of the ABINIT effort.

.Starting date : Tue 21 Feb 2017.
- ( at 17h06 )

- input  file    -> t69.in
- output file    -> t69.out
- root for input  files -> tbase3_xi
- root for output files -> tbase3_xo

 DATASET    1 : space group F-4 3 m (#216); Bravais cF (face-center cubic)
   intxc =         0  ionmov =         0    iscf =         5 xclevel =         1
  lmnmax =         8   lnmax =         8   mband =        10  mffmem =         1
P  mgfft =        64   mkmem =         6 mpssoang=         4     mpw =     11938
  mqgrid =      3001   natom =         2    nfft =    262144    nkpt =        44
  nloalg =         4  nspden =         1 nspinor =         1  nsppol =         1
    nsym =        24  n1xccc =         0  ntypat =         2  occopt =         3
  Rough estimation (10% accuracy) of disk space for files :

 DATASET    2 : space group F-4 3 m (#216); Bravais cF (face-center cubic)
   intxc =         0    iscf =        -3 xclevel =         1  lmnmax =         8
   lnmax =         8   mband =        10  mffmem =         1   mgfft =        64
P  mkmem =        86  mkqmem =        86  mk1mem =        86 mpssoang=         4
     mpw =     11938  mqgrid =      3001   natom =         2    nfft =    262144
    nkpt =       688  nloalg =         4  nspden =         1 nspinor =         1
  nsppol =         1    nsym =        24  n1xccc =         0  ntypat =         2
  occopt =         3
  Rough estimation (10% accuracy) of disk space for files :

 DATASET    3 : space group F-4 3 m (#216); Bravais cF (face-center cubic)
   intxc =         0    iscf =         5 xclevel =         1  lmnmax =         8
   lnmax =         8   mband =        10  mffmem =         1   mgfft =        64
P  mkmem =        86  mkqmem =        86  mk1mem =        86 mpssoang=         4
     mpw =     11938  mqgrid =      3001   natom =         2    nfft =    262144
    nkpt =       688  nloalg =         4  nspden =         1 nspinor =         1
  nsppol =         1    nsym =        24  n1xccc =         0  ntypat =         2
  occopt =         3
  Rough estimation (10% accuracy) of disk space for files :

------------- Echo of variables that govern the present computation ------------
-
- outvars: echo of selected default values
-   accesswff0 =  0 , fftalg0 =312 , wfoptalg0 =  0
-
- outvars: echo of global parameters not present in the input file
-  max_nthreads =    0
-
 -outvars: echo values of preprocessed input variables --------
            acell      1.1943069160E+01  1.1943069160E+01  1.1943069160E+01 Bohr
              amu      6.93062875E+01  1.27600000E+02
           diemac      9.00000000E+00
             ecut      7.00000000E+01 Hartree
-          fftalg         312
           getddk1          0
           getddk2          0
           getddk3         -1
           getwfk1          0
           getwfk2         -1
           getwfk3         -2
             iscf1          5
             iscf2         -3
             iscf3          5
           istwfk1       0    0    0    0    0    0    0    0    0    0
                         4    0    0    0    0    0    0    0    0    0
                         0    0    0    0    0    0    0    0    0    0
                         0    0    0    0    0    0    0    0    0    0
                         0    0    0    0
           istwfk2       0    0    0    0    0    0    0    0    0    0
                         0    0    0    0    0    0    0    0    0    0
                         0    0    1    0    0    0    0    0    0    0
                         0    0    0    0    0    0    0    0    0    0
                         0    0    0    0    0    0    0    0    0    0
           istwfk3       0    0    0    0    0    0    0    0    0    0
                         0    0    0    0    0    0    0    0    0    0
                         0    0    1    0    0    0    0    0    0    0
                         0    0    0    0    0    0    0    0    0    0
                         0    0    0    0    0    0    0    0    0    0
                       outvar_i_n : Printing only first  50 k-points.
              ixc           7
           jdtset        1    2    3
              kpt1     0.00000000E+00  0.00000000E+00 -7.14285714E-02
                       0.00000000E+00  0.00000000E+00 -2.14285714E-01
                       0.00000000E+00  7.14285714E-02 -1.42857143E-01
                       7.14285714E-02  7.14285714E-02 -7.14285714E-02
                       0.00000000E+00  0.00000000E+00 -3.57142857E-01
                       0.00000000E+00  7.14285714E-02 -2.85714286E-01
                       0.00000000E+00  1.42857143E-01 -2.14285714E-01
                       7.14285714E-02  7.14285714E-02 -2.14285714E-01
                       7.14285714E-02  1.42857143E-01 -1.42857143E-01
                       1.42857143E-01  1.42857143E-01 -7.14285714E-02
                       0.00000000E+00  0.00000000E+00  5.00000000E-01
                       0.00000000E+00  7.14285714E-02 -4.28571429E-01
                       0.00000000E+00  1.42857143E-01 -3.57142857E-01
                       0.00000000E+00  2.14285714E-01 -2.85714286E-01
                       7.14285714E-02  7.14285714E-02 -3.57142857E-01
                       7.14285714E-02  1.42857143E-01 -2.85714286E-01
                       7.14285714E-02  2.14285714E-01 -2.14285714E-01
                       1.42857143E-01  1.42857143E-01 -2.14285714E-01
                       1.42857143E-01  2.14285714E-01 -1.42857143E-01
                       2.14285714E-01  2.14285714E-01 -7.14285714E-02
                       0.00000000E+00  1.42857143E-01  5.00000000E-01
                       0.00000000E+00  2.14285714E-01 -4.28571429E-01
                       0.00000000E+00  2.85714286E-01 -3.57142857E-01
                       7.14285714E-02  1.42857143E-01 -4.28571429E-01
                       7.14285714E-02  2.14285714E-01 -3.57142857E-01
                       7.14285714E-02  2.85714286E-01 -2.85714286E-01
                       1.42857143E-01  2.14285714E-01 -2.85714286E-01
                       1.42857143E-01  2.85714286E-01 -2.14285714E-01
                       2.14285714E-01  2.14285714E-01 -2.14285714E-01
                       2.14285714E-01  2.85714286E-01 -1.42857143E-01
                       2.85714286E-01  2.85714286E-01 -7.14285714E-02
                       0.00000000E+00  2.85714286E-01  5.00000000E-01
                       0.00000000E+00  3.57142857E-01 -4.28571429E-01
                       7.14285714E-02  2.85714286E-01 -4.28571429E-01
                       7.14285714E-02  3.57142857E-01 -3.57142857E-01
                       1.42857143E-01  2.85714286E-01 -3.57142857E-01
                       1.42857143E-01  3.57142857E-01 -2.85714286E-01
                       2.14285714E-01  3.57142857E-01 -2.14285714E-01
                       2.85714286E-01  3.57142857E-01 -1.42857143E-01
                       3.57142857E-01  3.57142857E-01 -7.14285714E-02
                       0.00000000E+00  4.28571429E-01  5.00000000E-01
                       7.14285714E-02  4.28571429E-01 -4.28571429E-01
                       1.42857143E-01  4.28571429E-01 -3.57142857E-01
                       2.14285714E-01  4.28571429E-01 -2.85714286E-01
              kpt2     0.00000000E+00  0.00000000E+00 -7.14285714E-02
                       0.00000000E+00  0.00000000E+00 -2.14285714E-01
                       0.00000000E+00  7.14285714E-02 -1.42857143E-01
                       0.00000000E+00  1.42857143E-01 -7.14285714E-02
                       7.14285714E-02  0.00000000E+00 -1.42857143E-01
                       7.14285714E-02  7.14285714E-02 -7.14285714E-02
                       1.42857143E-01  0.00000000E+00 -7.14285714E-02
                       0.00000000E+00  0.00000000E+00 -3.57142857E-01
                       0.00000000E+00  7.14285714E-02 -2.85714286E-01
                       0.00000000E+00  1.42857143E-01 -2.14285714E-01
                       0.00000000E+00  2.14285714E-01 -1.42857143E-01
                       0.00000000E+00  2.85714286E-01 -7.14285714E-02
                       7.14285714E-02  0.00000000E+00 -2.85714286E-01
                       7.14285714E-02  7.14285714E-02 -2.14285714E-01
                       7.14285714E-02  1.42857143E-01 -1.42857143E-01
                       7.14285714E-02  2.14285714E-01 -7.14285714E-02
                       1.42857143E-01  0.00000000E+00 -2.14285714E-01
                       1.42857143E-01  7.14285714E-02 -1.42857143E-01
                       1.42857143E-01  1.42857143E-01 -7.14285714E-02
                       2.14285714E-01  0.00000000E+00 -1.42857143E-01
                       2.14285714E-01  7.14285714E-02 -7.14285714E-02
                       2.85714286E-01  0.00000000E+00 -7.14285714E-02
                       0.00000000E+00  0.00000000E+00  5.00000000E-01
                       0.00000000E+00  7.14285714E-02 -4.28571429E-01
                       0.00000000E+00  1.42857143E-01 -3.57142857E-01
                       0.00000000E+00  2.14285714E-01 -2.85714286E-01
                       0.00000000E+00  2.85714286E-01 -2.14285714E-01
                       0.00000000E+00  3.57142857E-01 -1.42857143E-01
                       0.00000000E+00  4.28571429E-01 -7.14285714E-02
                       7.14285714E-02  0.00000000E+00 -4.28571429E-01
                       7.14285714E-02  7.14285714E-02 -3.57142857E-01
                       7.14285714E-02  1.42857143E-01 -2.85714286E-01
                       7.14285714E-02  2.14285714E-01 -2.14285714E-01
                       7.14285714E-02  2.85714286E-01 -1.42857143E-01
                       7.14285714E-02  3.57142857E-01 -7.14285714E-02
                       1.42857143E-01  0.00000000E+00 -3.57142857E-01
                       1.42857143E-01  7.14285714E-02 -2.85714286E-01
                       1.42857143E-01  1.42857143E-01 -2.14285714E-01
                       1.42857143E-01  2.14285714E-01 -1.42857143E-01
                       1.42857143E-01  2.85714286E-01 -7.14285714E-02
                       2.14285714E-01  0.00000000E+00 -2.85714286E-01
                       2.14285714E-01  7.14285714E-02 -2.14285714E-01
                       2.14285714E-01  1.42857143E-01 -1.42857143E-01
                       2.14285714E-01  2.14285714E-01 -7.14285714E-02
                       2.85714286E-01  0.00000000E+00 -2.14285714E-01
                       2.85714286E-01  7.14285714E-02 -1.42857143E-01
                       2.85714286E-01  1.42857143E-01 -7.14285714E-02
                       3.57142857E-01  0.00000000E+00 -1.42857143E-01
                       3.57142857E-01  7.14285714E-02 -7.14285714E-02
                       4.28571429E-01  0.00000000E+00 -7.14285714E-02
              kpt3     0.00000000E+00  0.00000000E+00 -7.14285714E-02
                       0.00000000E+00  0.00000000E+00 -2.14285714E-01
                       0.00000000E+00  7.14285714E-02 -1.42857143E-01
[...]
                       1.999953  1.930108  1.875335  1.868146  1.553458  1.521092
                       1.076085  0.816367  0.594360  0.092948
                       1.999956  1.921663  1.872036  1.871417  1.558399  1.518919
                       0.936926  0.709828  0.683191  0.092323
                       1.999949  1.940704  1.881768  1.864622  1.551571  1.518769
                       1.207790  0.976760  0.599746  0.079580
                       1.999953  1.930108  1.875335  1.868146  1.553458  1.521092
                       1.076085  0.816367  0.594360  0.092948
                       1.999947  1.949583  1.871860  1.865038  1.541440  1.521693
                       1.312729  0.816898  0.646868  0.118469
                       1.999937  1.967905  1.863367  1.863367  1.514229  1.514229
                       1.488808  0.811768  0.811768  0.152319
                       1.999937  1.965937  1.870180  1.862625  1.521191  1.517864
                       1.475129  0.896464  0.806577  0.123086
                       1.999937  1.960092  1.887249  1.860899  1.536367  1.522901
                       1.437445  1.069421  0.795441  0.077288
                       1.999937  1.952419  1.904248  1.859449  1.548118  1.525948
                       1.377475  1.220404  0.786994  0.052183
                       1.999937  1.952419  1.904248  1.859449  1.548118  1.525948
                       1.377475  1.220404  0.786994  0.052183
                       1.999937  1.960092  1.887249  1.860899  1.536367  1.522901
                       1.437445  1.069421  0.795441  0.077288
                       1.999937  1.965937  1.870180  1.862625  1.521191  1.517864
                       1.475129  0.896464  0.806577  0.123086
                       1.999937  1.965937  1.870180  1.862625  1.521191  1.517864
                       1.475129  0.896464  0.806577  0.123086
                       1.999939  1.962902  1.868868  1.864163  1.529857  1.513719
[...]
                       1.218672  1.000712  0.792301  0.059287
                       1.999948  1.941137  1.869671  1.867585  1.575322  1.508579
                       1.104234  0.911712  0.892585  0.071039
                       1.999937  1.952419  1.904248  1.859449  1.548118  1.525948
                       1.377475  1.220404  0.786994  0.052183
                       1.999942  1.949214  1.890288  1.862068  1.554861  1.513274
                       1.317829  1.121050  0.737280  0.054319
                       1.999946  1.944654  1.877419  1.865344  1.565891  1.510236
                       1.218672  1.000712  0.792301  0.059287
                       1.999937  1.960092  1.887249  1.860899  1.536367  1.522901
                       1.437445  1.069421  0.795441  0.077288
                       1.999941  1.956388  1.878631  1.863278  1.543993  1.513514
                       1.395119  0.965558  0.768946  0.085118
                       1.999937  1.965937  1.870180  1.862625  1.521191  1.517864
                       1.475129  0.896464  0.806577  0.123086
                       prtocc : prtvol=0, do not print more k-points.
              occ3     1.999963  1.883359  1.874812  1.874812  1.531889  1.531889
                       0.592626  0.438616  0.438616  0.263542
                       1.999956  1.925479  1.870155  1.870155  1.535600  1.535600
                       1.067853  0.565644  0.565644  0.155579
                       1.999958  1.913137  1.874164  1.870684  1.542584  1.528856
                       0.920562  0.639874  0.485639  0.145306
                       1.999958  1.913137  1.874164  1.870684  1.542584  1.528856
                       0.920562  0.639874  0.485639  0.145306
                       1.999958  1.913137  1.874164  1.870684  1.542584  1.528856
                       0.920562  0.639874  0.485639  0.145306
                       1.999960  1.899628  1.873749  1.873576  1.541878  1.527264
                       0.763470  0.537601  0.511206  0.167084
                       1.999958  1.913137  1.874164  1.870684  1.542584  1.528856
                       0.920562  0.639874  0.485639  0.145306
                       1.999944  1.958115  1.865160  1.865160  1.526052  1.526052
                       1.393072  0.731495  0.731495  0.148182
                       1.999947  1.949583  1.871860  1.865038  1.541440  1.521693
                       1.312729  0.816898  0.646868  0.118469
                       1.999949  1.940704  1.881768  1.864622  1.551571  1.518769
                       1.207790  0.976760  0.599746  0.079580
                       1.999949  1.940704  1.881768  1.864622  1.551571  1.518769
                       1.207790  0.976760  0.599746  0.079580
                       1.999947  1.949583  1.871860  1.865038  1.541440  1.521693
                       1.312729  0.816898  0.646868  0.118469
                       1.999947  1.949583  1.871860  1.865038  1.541440  1.521693
                       1.312729  0.816898  0.646868  0.118469
                       1.999951  1.939462  1.869796  1.868743  1.546286  1.523859
                       1.204196  0.707667  0.649594  0.117961
                       1.999953  1.930108  1.875335  1.868146  1.553458  1.521092
                       1.076085  0.816367  0.594360  0.092948
                       1.999953  1.930108  1.875335  1.868146  1.553458  1.521092
                       1.076085  0.816367  0.594360  0.092948
                       1.999949  1.940704  1.881768  1.864622  1.551571  1.518769
                       1.207790  0.976760  0.599746  0.079580
                       1.999953  1.930108  1.875335  1.868146  1.553458  1.521092
                       1.076085  0.816367  0.594360  0.092948
                       1.999956  1.921663  1.872036  1.871417  1.558399  1.518919
                       0.936926  0.709828  0.683191  0.092323
                       1.999949  1.940704  1.881768  1.864622  1.551571  1.518769
                       1.207790  0.976760  0.599746  0.079580
                       1.999953  1.930108  1.875335  1.868146  1.553458  1.521092
                       1.076085  0.816367  0.594360  0.092948
                       1.999947  1.949583  1.871860  1.865038  1.541440  1.521693
                       1.312729  0.816898  0.646868  0.118469
                       1.999937  1.967905  1.863367  1.863367  1.514229  1.514229
                       1.488808  0.811768  0.811768  0.152319
                       1.999937  1.965937  1.870180  1.862625  1.521191  1.517864
                       1.475129  0.896464  0.806577  0.123086
                       1.999937  1.960092  1.887249  1.860899  1.536367  1.522901
                       1.437445  1.069421  0.795441  0.077288
                       1.999937  1.952419  1.904248  1.859449  1.548118  1.525948
                       1.377475  1.220404  0.786994  0.052183
                       1.999937  1.952419  1.904248  1.859449  1.548118  1.525948
                       1.377475  1.220404  0.786994  0.052183
                       1.999937  1.960092  1.887249  1.860899  1.536367  1.522901
                       1.437445  1.069421  0.795441  0.077288
                       1.999937  1.965937  1.870180  1.862625  1.521191  1.517864
                       1.475129  0.896464  0.806577  0.123086
                       1.999937  1.965937  1.870180  1.862625  1.521191  1.517864
                       1.475129  0.896464  0.806577  0.123086
                       1.999939  1.962902  1.868868  1.864163  1.529857  1.513719
[...]
                       1.218672  1.000712  0.792301  0.059287
                       1.999948  1.941137  1.869671  1.867585  1.575322  1.508579
                       1.104234  0.911712  0.892585  0.071039
                       1.999937  1.952419  1.904248  1.859449  1.548118  1.525948
                       1.377475  1.220404  0.786994  0.052183
                       1.999942  1.949214  1.890288  1.862068  1.554861  1.513274
                       1.317829  1.121050  0.737280  0.054319
                       1.999946  1.944654  1.877419  1.865344  1.565891  1.510236
                       1.218672  1.000712  0.792301  0.059287
                       1.999937  1.960092  1.887249  1.860899  1.536367  1.522901
                       1.437445  1.069421  0.795441  0.077288
                       1.999941  1.956388  1.878631  1.863278  1.543993  1.513514
                       1.395119  0.965558  0.768946  0.085118
                       1.999937  1.965937  1.870180  1.862625  1.521191  1.517864
                       1.475129  0.896464  0.806577  0.123086
                       prtocc : prtvol=0, do not print more k-points.
           occopt           3
        optdriver1          0
        optdriver2          1
        optdriver3          1
          rfatpol1          1       1
          rfatpol2          1       1
          rfatpol3          1       2
            rfdir1          0       0       0
            rfdir2          1       1       1
            rfdir3          1       1       1
           rfelfd1          0
           rfelfd2          2
           rfelfd3          3
           rfphon1          0
           rfphon2          0
           rfphon3          1
           rfstrs1          0
           rfstrs2          0
           rfstrs3          3
            rprim      0.0000000000E+00  5.0000000000E-01  5.0000000000E-01
                       5.0000000000E-01  0.0000000000E+00  5.0000000000E-01
                       5.0000000000E-01  5.0000000000E-01  0.0000000000E+00
           shiftk      5.00000000E-01  5.00000000E-01  5.00000000E-01
          spgroup         216
           strten1     2.1010519090E-04  2.1010519090E-04  2.1010519090E-04
                       0.0000000000E+00  0.0000000000E+00  0.0000000000E+00
           strten3     0.0000000000E+00  0.0000000000E+00  0.0000000000E+00
                       0.0000000000E+00  0.0000000000E+00  0.0000000000E+00
           symrel      1  0  0   0  1  0   0  0  1       0 -1  1   0 -1  0   1 -1  0
                      -1  0  0  -1  0  1  -1  1  0       0  1 -1   1  0 -1   0  0 -1
                      -1  0  0  -1  1  0  -1  0  1       0 -1  1   1 -1  0   0 -1  0
                       1  0  0   0  0  1   0  1  0       0  1 -1   0  0 -1   1  0 -1
                      -1  0  1  -1  1  0  -1  0  0       0 -1  0   1 -1  0   0 -1  1
                       1  0 -1   0  0 -1   0  1 -1       0  1  0   0  0  1   1  0  0
                       1  0 -1   0  1 -1   0  0 -1       0 -1  0   0 -1  1   1 -1  0
                      -1  0  1  -1  0  0  -1  1  0       0  1  0   1  0  0   0  0  1
                       0  0 -1   0  1 -1   1  0 -1       1 -1  0   0 -1  1   0 -1  0
                       0  0  1   1  0  0   0  1  0      -1  1  0  -1  0  0  -1  0  1
                       0  0  1   0  1  0   1  0  0       1 -1  0   0 -1  0   0 -1  1
                       0  0 -1   1  0 -1   0  1 -1      -1  1  0  -1  0  1  -1  0  0
           tolvrs1     1.00000000E-18
           tolvrs2     0.00000000E+00
           tolvrs3     1.00000000E-08
           tolwfr1     0.00000000E+00
           tolwfr2     1.00000000E-22
           tolwfr3     0.00000000E+00
            typat      1  2
              wtk1       0.00583    0.00583    0.01749    0.01749    0.00583    0.01749
                         0.01749    0.01749    0.03499    0.01749    0.00292    0.01749
                         0.01749    0.01749    0.01749    0.03499    0.03499    0.01749
                         0.03499    0.01749    0.01749    0.01749    0.01749    0.01749
                         0.03499    0.03499    0.03499    0.03499    0.01749    0.03499
                         0.01749    0.01749    0.01749    0.03499    0.03499    0.01749
                         0.03499    0.03499    0.03499    0.01749    0.01749    0.03499
                         0.03499    0.01749
              wtk2       0.00146    0.00146    0.00146    0.00146    0.00146    0.00146
                         0.00146    0.00146    0.00146    0.00146    0.00146    0.00146
                         0.00146    0.00146    0.00146    0.00146    0.00146    0.00146
                         0.00146    0.00146    0.00146    0.00146    0.00073    0.00146
                         0.00146    0.00146    0.00146    0.00146    0.00146    0.00146
                         0.00146    0.00146    0.00146    0.00146    0.00146    0.00146
                         0.00146    0.00146    0.00146    0.00146    0.00146    0.00146
                         0.00146    0.00146    0.00146    0.00146    0.00146    0.00146
                         0.00146    0.00146
              wtk3       0.00146    0.00146    0.00146    0.00146    0.00146    0.00146
                         0.00146    0.00146    0.00146    0.00146    0.00146    0.00146
                         0.00146    0.00146    0.00146    0.00146    0.00146    0.00146
                         0.00146    0.00146    0.00146    0.00146    0.00073    0.00146
                         0.00146    0.00146    0.00146    0.00146    0.00146    0.00146
                         0.00146    0.00146    0.00146    0.00146    0.00146    0.00146
                         0.00146    0.00146    0.00146    0.00146    0.00146    0.00146
                         0.00146    0.00146    0.00146    0.00146    0.00146    0.00146
                         0.00146    0.00146
                       outvars : Printing only first  50 k-points.
           xangst      0.0000000000E+00  0.0000000000E+00  0.0000000000E+00
                       1.5800000000E+00  1.5800000000E+00  1.5800000000E+00
            xcart      0.0000000000E+00  0.0000000000E+00  0.0000000000E+00
                       2.9857672900E+00  2.9857672900E+00  2.9857672900E+00
             xred      0.0000000000E+00  0.0000000000E+00  0.0000000000E+00
                       2.5000000000E-01  2.5000000000E-01  2.5000000000E-01
        ziontypat      8.25000000E+00  6.00000000E+00
            znucl       48.00000   25.00000   52.00000

- Timing analysis has been suppressed with timopt=0

 Suggested references for the acknowledgment of ABINIT usage.

 [1] Metric tensor formulation of strain in density-functional perturbation theory,
 D. R. Hamann, X. Wu, K. M. Rabe, and D. Vanderbilt, Phys. Rev. B71, 035117 (2005).
 Comment : Non-vanishing rfstrs. Strong suggestion to cite this paper in your publications.

 [2] First-principles responses of solids to atomic displacements and homogeneous electric fields:,
 implementation of a conjugate-gradient algorithm. X. Gonze, Phys. Rev. B55, 10337 (1997).
 Comment : Non-vanishing rfphon and/or rfelfd, in the norm-conserving case.

 [3] Dynamical matrices, Born effective charges, dielectric permittivity tensors, and ,
 interatomic force constants from density-functional perturbation theory,
 X. Gonze and C. Lee, Phys. Rev. B55, 10355 (1997).
 Comment : Non-vanishing rfphon and/or rfelfd, in the norm-conserving case.

 [4] Ab initio pseudopotentials for electronic structure calculations of poly-atomic systems,
 using density-functional theory.
 M. Fuchs, M. Scheffler, Comput. Phys. Commun. 119, 67 (1999).
 Comment : Some pseudopotential generated using the FHI code were used.

 [5] ABINIT : First-principles approach of materials and nanosystem properties.
 X. Gonze, B. Amadon, P.-M. Anglade, J.-M. Beuken, F. Bottin, P. Boulanger, F. Bruneval,
 D. Caliste, R. Caracas, M. Cote, T. Deutsch, L. Genovese, Ph. Ghosez, M. Giantomassi
 S. Goedecker, D.R. Hamann, P. Hermet, F. Jollet, G. Jomard, S. Leroux, M. Mancini, S. Mazevet,
 M.J.T. Oliveira, G. Onida, Y. Pouillon, T. Rangel, G.-M. Rignanese, D. Sangalli, R. Shaltaf,
 M. Torrent, M.J. Verstraete, G. Zerah, J.W. Zwanziger
 Computer Phys. Comm. 180, 2582-2615 (2009).
 Comment : the third generic paper describing the ABINIT project.
 Note that a version of this paper, that is not formatted for Computer Phys. Comm.
 The licence allows the authors to put it on the Web.

 [6] A brief introduction to the ABINIT software package.
 X. Gonze, G.-M. Rignanese, M. Verstraete, J.-M. Beuken, Y. Pouillon, R. Caracas, F. Jollet,
 M. Torrent, G. Zerah, M. Mikami, Ph. Ghosez, M. Veithen, J.-Y. Raty, V. Olevano, F. Bruneval,
 L. Reining, R. Godby, G. Onida, D.R. Hamann, and D.C. Allan.
 Z. Kristallogr. 220, 558-562 (2005).
 Comment : the second generic paper describing the ABINIT project. Note that this paper
 should be cited especially if you are using the GW part of ABINIT, as several authors
 of this part are not in the list of authors of the first or third paper.
 Note that it should not redistributed (Copyright by Oldenburg Wissenshaftverlag,
 the licence allows the authors to put it on the Web).
-

 Calculation completed.
.Delivered    1 WARNINGs and   0 COMMENTs to log file.