.Version 6.2.2  of ABINIT

 ABINIT is a project of the Universite Catholique de Louvain,
 Corning Inc. and other collaborators, see ~abinit/doc/developers/contributors.txt .
 Please read ~abinit/doc/users/acknowledgments.html for suggested
 acknowledgments of the ABINIT effort.

.Starting date : Wed 25 Aug 2010.

- input  file    -> test.in
- output file    -> testx.out
- root for input  files -> testxi
- root for output files -> testxo

 Symmetries : the space group has not been recognized
   intxc =         0  ionmov =         0    iscf =         7 xclevel =         2
  lmnmax =         2   lnmax =         2   mband =        60  mffmem =         1
P  mgfft =        80   mkmem =         4 mpssoang=         3     mpw =      5526
  mqgrid =      3001   natom =         4    nfft =    128000    nkpt =        32
  nloalg =         4  nspden =         4 nspinor =         2  nsppol =         1
    nsym =         2  n1xccc =      2501  ntypat =         2  occopt =         7
  Rough estimation (10% accuracy) of disk space for files :

 -outvars: echo values of preprocessed input variables --------
            acell    7.9200000000E+00  7.9200000000E+00  7.9200000000E+00 Bohr
              amu    5.86900000E+01  1.59994000E+01
      chksymbreak         0
             ecut    6.00000000E+01 Hartree
              ixc        11
              kpt    1.25000000E-01  1.25000000E-01  2.50000000E-01
                     3.75000000E-01  1.25000000E-01  2.50000000E-01
                    -3.75000000E-01  1.25000000E-01  2.50000000E-01
                    -1.25000000E-01  1.25000000E-01  2.50000000E-01
                     1.25000000E-01  3.75000000E-01  2.50000000E-01
                     3.75000000E-01  3.75000000E-01  2.50000000E-01
                    -3.75000000E-01  3.75000000E-01  2.50000000E-01
                    -1.25000000E-01  3.75000000E-01  2.50000000E-01
                     1.25000000E-01 -3.75000000E-01  2.50000000E-01
                     3.75000000E-01 -3.75000000E-01  2.50000000E-01
                    -3.75000000E-01 -3.75000000E-01  2.50000000E-01
                    -1.25000000E-01 -3.75000000E-01  2.50000000E-01
                     1.25000000E-01 -1.25000000E-01  2.50000000E-01
                     3.75000000E-01 -1.25000000E-01  2.50000000E-01
                    -3.75000000E-01 -1.25000000E-01  2.50000000E-01
                    -1.25000000E-01 -1.25000000E-01  2.50000000E-01
                     1.25000000E-01  1.25000000E-01 -2.50000000E-01
                     3.75000000E-01  1.25000000E-01 -2.50000000E-01
                    -3.75000000E-01  1.25000000E-01 -2.50000000E-01
                    -1.25000000E-01  1.25000000E-01 -2.50000000E-01
                     1.25000000E-01  3.75000000E-01 -2.50000000E-01
                     3.75000000E-01  3.75000000E-01 -2.50000000E-01
                    -3.75000000E-01  3.75000000E-01 -2.50000000E-01
                    -1.25000000E-01  3.75000000E-01 -2.50000000E-01
                     1.25000000E-01 -3.75000000E-01 -2.50000000E-01
                     3.75000000E-01 -3.75000000E-01 -2.50000000E-01
                    -3.75000000E-01 -3.75000000E-01 -2.50000000E-01
                    -1.25000000E-01 -3.75000000E-01 -2.50000000E-01
                     1.25000000E-01 -1.25000000E-01 -2.50000000E-01
                     3.75000000E-01 -1.25000000E-01 -2.50000000E-01
                    -3.75000000E-01 -1.25000000E-01 -2.50000000E-01
                    -1.25000000E-01 -1.25000000E-01 -2.50000000E-01
          kptrlen    2.24011428E+01
           kptopt         4
         kptrlatt    4  0  0   0  4  0   0  0  2
P           mkmem         4
            natom         4
            nband        60
            ngfft        40      40      80
             nkpt        32
           nspden         4
          nspinor         2
            nstep       120
             nsym         2
           ntypat         2
              occ    1.000000  1.000000  1.000000  1.000000  1.000000  1.000000
                     1.000000  1.000000  1.000000  1.000000  1.000000  1.000000
                     1.000000  1.000000  1.000000  1.000000  1.000000  1.000000
                     1.000000  1.000000  1.000000  1.000000  1.000000  1.000000
                     1.000000  1.000000  1.000000  1.000000  1.000000  1.000000
                     1.000000  1.000000  0.000000  0.000000  0.000000  0.000000
                     0.000000  0.000000  0.000000  0.000000  0.000000  0.000000
                     0.000000  0.000000  0.000000  0.000000  0.000000  0.000000
                     0.000000  0.000000  0.000000  0.000000  0.000000  0.000000
                     0.000000  0.000000  0.000000  0.000000  0.000000  0.000000
                     1.000000  1.000000  1.000000  1.000000  1.000000  1.000000
                     1.000000  1.000000  1.000000  1.000000  1.000000  1.000000
                     1.000000  1.000000  1.000000  1.000000  1.000000  1.000000
                     1.000000  1.000000  1.000000  1.000000  1.000000  1.000000
                     1.000000  1.000000  1.000000  1.000000  1.000000  1.000000
                     1.000000  1.000000  0.000000  0.000000  0.000000  0.000000
                     0.000000  0.000000  0.000000  0.000000  0.000000  0.000000
                     0.000000  0.000000  0.000000  0.000000  0.000000  0.000000
                     0.000000  0.000000  0.000000  0.000000  0.000000  0.000000
                     0.000000  0.000000  0.000000  0.000000  0.000000  0.000000
                     1.000000  1.000000  1.000000  1.000000  1.000000  1.000000
                     1.000000  1.000000  1.000000  1.000000  1.000000  1.000000
                     1.000000  1.000000  1.000000  1.000000  1.000000  1.000000
                     1.000000  1.000000  1.000000  1.000000  1.000000  1.000000
                     1.000000  1.000000  1.000000  1.000000  1.000000  1.000000
                     1.000000  1.000000  0.000000  0.000000  0.000000  0.000000
                     0.000000  0.000000  0.000000  0.000000  0.000000  0.000000
                     0.000000  0.000000  0.000000  0.000000  0.000000  0.000000
                     0.000000  0.000000  0.000000  0.000000  0.000000  0.000000
                     0.000000  0.000000  0.000000  0.000000  0.000000  0.000000
                     1.000000  1.000000  1.000000  1.000000  1.000000  1.000000
                     1.000000  1.000000  1.000000  1.000000  1.000000  1.000000
                     1.000000  1.000000  1.000000  1.000000  1.000000  1.000000
                     1.000000  1.000000  1.000000  1.000000  1.000000  1.000000
                     1.000000  1.000000  1.000000  1.000000  1.000000  1.000000
                     1.000000  1.000000  0.000000  0.000000  0.000000  0.000000
                     0.000000  0.000000  0.000000  0.000000  0.000000  0.000000
                     0.000000  0.000000  0.000000  0.000000  0.000000  0.000000
                     0.000000  0.000000  0.000000  0.000000  0.000000  0.000000
                     0.000000  0.000000  0.000000  0.000000  0.000000  0.000000
                     1.000000  1.000000  1.000000  1.000000  1.000000  1.000000
                     1.000000  1.000000  1.000000  1.000000  1.000000  1.000000
                     1.000000  1.000000  1.000000  1.000000  1.000000  1.000000
                     1.000000  1.000000  1.000000  1.000000  1.000000  1.000000
                     1.000000  1.000000  1.000000  1.000000  1.000000  1.000000
                     1.000000  1.000000  0.000000  0.000000  0.000000  0.000000
                     0.000000  0.000000  0.000000  0.000000  0.000000  0.000000
                     0.000000  0.000000  0.000000  0.000000  0.000000  0.000000
                     0.000000  0.000000  0.000000  0.000000  0.000000  0.000000
                     0.000000  0.000000  0.000000  0.000000  0.000000  0.000000
                     1.000000  1.000000  1.000000  1.000000  1.000000  1.000000
                     1.000000  1.000000  1.000000  1.000000  1.000000  1.000000
                     1.000000  1.000000  1.000000  1.000000  1.000000  1.000000
                     1.000000  1.000000  1.000000  1.000000  1.000000  1.000000
                     1.000000  1.000000  1.000000  1.000000  1.000000  1.000000
                     1.000000  1.000000  0.000000  0.000000  0.000000  0.000000
                     0.000000  0.000000  0.000000  0.000000  0.000000  0.000000
                     0.000000  0.000000  0.000000  0.000000  0.000000  0.000000
                     0.000000  0.000000  0.000000  0.000000  0.000000  0.000000
                     0.000000  0.000000  0.000000  0.000000  0.000000  0.000000
                     1.000000  1.000000  1.000000  1.000000  1.000000  1.000000
[...]
                     1.000000  1.000000  0.000000  0.000000  0.000000  0.000000
                     0.000000  0.000000  0.000000  0.000000  0.000000  0.000000
                     0.000000  0.000000  0.000000  0.000000  0.000000  0.000000
                     0.000000  0.000000  0.000000  0.000000  0.000000  0.000000
                     0.000000  0.000000  0.000000  0.000000  0.000000  0.000000
                     1.000000  1.000000  1.000000  1.000000  1.000000  1.000000
                     1.000000  1.000000  1.000000  1.000000  1.000000  1.000000
                     1.000000  1.000000  1.000000  1.000000  1.000000  1.000000
                     1.000000  1.000000  1.000000  1.000000  1.000000  1.000000
                     1.000000  1.000000  1.000000  1.000000  1.000000  1.000000
                     1.000000  1.000000  0.000000  0.000000  0.000000  0.000000
                     0.000000  0.000000  0.000000  0.000000  0.000000  0.000000
                     0.000000  0.000000  0.000000  0.000000  0.000000  0.000000
                     0.000000  0.000000  0.000000  0.000000  0.000000  0.000000
                     0.000000  0.000000  0.000000  0.000000  0.000000  0.000000
           occopt         7
        prtdensph         1
            rprim    0.0000000000E+00  5.0000000000E-01  5.0000000000E-01
                     5.0000000000E-01  0.0000000000E+00  5.0000000000E-01
                     1.0000000000E+00  1.0000000000E+00  0.0000000000E+00
           shiftk    5.00000000E-01  5.00000000E-01  5.00000000E-01
           spinat    0.0000000000E+00  0.0000000000E+00  1.0000000000E+00
                     0.0000000000E+00  0.0000000000E+00 -1.0000000000E+00
                     0.0000000000E+00  0.0000000000E+00  0.0000000000E+00
                     0.0000000000E+00  0.0000000000E+00  0.0000000000E+00
           symafm    1 -1
            tnons    0.0000000  0.0000000  0.0000000     0.0000000  0.0000000  0.5000000
           toldfe    1.00000000E-08 Hartree
           tsmear    9.50044626E-04 Hartree
            typat    1  1  2  2
              wtk      0.03125    0.03125    0.03125    0.03125    0.03125    0.03125
                       0.03125    0.03125    0.03125    0.03125    0.03125    0.03125
                       0.03125    0.03125    0.03125    0.03125    0.03125    0.03125
[...]
,     Minimum=    1.8613E-06  at reduced coord.    0.0000    0.0000    0.0000
,Next minimum=    1.8665E-06  at reduced coord.    0.0000    0.0000    0.5000
 y component of magnetization [el/Bohr^3]
,     Maximum=    3.4839E-03  at reduced coord.    0.1000    0.9000    0.9500
,Next maximum=    3.4839E-03  at reduced coord.    0.9000    0.1000    0.9500
,     Minimum=    1.7122E-06  at reduced coord.    0.0000    0.0000    0.5000
,Next minimum=    1.7132E-06  at reduced coord.    0.0000    0.0000    0.0000
 z component of magnetization [el/Bohr^3]
,     Maximum=    4.8712E-01  at reduced coord.    0.1000    0.9000    0.0500
,Next maximum=    4.8712E-01  at reduced coord.    0.9000    0.1000    0.9500
,     Minimum=   -4.8712E-01  at reduced coord.    0.9000    0.1000    0.4500
,Next minimum=   -4.8712E-01  at reduced coord.    0.1000    0.9000    0.5500
 Magnetization (spin up - spin down) [el/Bohr^3]
,     Maximum=    4.8715E-01  at reduced coord.    0.9000    0.1000    0.4500
,Next maximum=    4.8715E-01  at reduced coord.    0.1000    0.9000    0.5500
,     Minimum=    4.2839E-06  at reduced coord.    0.0000    0.0000    0.0000
,Next minimum=    4.2839E-06  at reduced coord.    0.0000    0.0000    0.5000
 Relative magnetization (=zeta, between -1 and 1)
,     Maximum=    6.0796E-01  at reduced coord.    0.9250    0.0750    0.4625
,Next maximum=    6.0796E-01  at reduced coord.    0.0750    0.9250    0.5375
,     Minimum=    3.0222E-04  at reduced coord.    0.9250    0.3500    0.9250
,Next minimum=    3.0222E-04  at reduced coord.    0.0750    0.6500    0.0750

 Components of total free energy (in Hartree) :

    Kinetic energy  =  1.00775617051079E+02
    Hartree energy  =  1.93449979929863E+01
    XC energy       = -3.97141352714038E+01
    Ewald energy    = -9.52410591238850E+01
    PspCore energy  =  1.47169632123287E+01
    Loc. psp. energy= -4.05168229316091E+01
    NL   psp  energy= -7.71924298198320E+01
    >>>>> Internal E= -1.17826868890336E+02

    -kT*entropy     = -9.81720522458884E-17
    >>>>>>>>> Etotal= -1.17826868890336E+02

 Other information on the energy :
    Total energy(eV)= -3.20623215839683E+03 ; Band energy (Ha)=  -6.4093216377E+00

 Cartesian components of stress tensor (hartree/bohr^3)
  sigma(1 1)=  4.76918410E-04  sigma(3 2)= -5.85468522E-07
  sigma(2 2)=  4.76918416E-04  sigma(3 1)= -5.85474390E-07
  sigma(3 3)=  4.71222033E-04  sigma(2 1)=  1.66289909E-05

-Cartesian components of stress tensor (GPa)         [Pressure= -1.3976E+01 GPa]
- sigma(1 1)=  1.40314217E+01  sigma(3 2)= -1.72250757E-02
- sigma(2 2)=  1.40314219E+01  sigma(3 1)= -1.72252484E-02
- sigma(3 3)=  1.38638285E+01  sigma(2 1)=  4.89241721E-01

== END DATASET(S) ==============================================================

 -outvars: echo values of variables after computation  --------
            acell    7.9200000000E+00  7.9200000000E+00  7.9200000000E+00 Bohr
              amu    5.86900000E+01  1.59994000E+01
      chksymbreak         0
             ecut    6.00000000E+01 Hartree
           etotal   -1.1782686889E+02
            fcart   -1.5722652734E-13  9.0732741149E-14 -7.6043318920E-15
                    -1.5722652734E-13  9.0732741149E-14 -7.6043318920E-15
                     1.5722652734E-13 -9.0732741149E-14  7.6043318920E-15
                     1.5722652734E-13 -9.0732741149E-14  7.6043318920E-15
              ixc        11
              kpt    1.25000000E-01  1.25000000E-01  2.50000000E-01
                     3.75000000E-01  1.25000000E-01  2.50000000E-01
                    -3.75000000E-01  1.25000000E-01  2.50000000E-01
                    -1.25000000E-01  1.25000000E-01  2.50000000E-01
                     1.25000000E-01  3.75000000E-01  2.50000000E-01
                     3.75000000E-01  3.75000000E-01  2.50000000E-01
                    -3.75000000E-01  3.75000000E-01  2.50000000E-01
                    -1.25000000E-01  3.75000000E-01  2.50000000E-01
                     1.25000000E-01 -3.75000000E-01  2.50000000E-01
                     3.75000000E-01 -3.75000000E-01  2.50000000E-01
                    -3.75000000E-01 -3.75000000E-01  2.50000000E-01
                    -1.25000000E-01 -3.75000000E-01  2.50000000E-01
                     1.25000000E-01 -1.25000000E-01  2.50000000E-01
                     3.75000000E-01 -1.25000000E-01  2.50000000E-01
                    -3.75000000E-01 -1.25000000E-01  2.50000000E-01
                    -1.25000000E-01 -1.25000000E-01  2.50000000E-01
                     1.25000000E-01  1.25000000E-01 -2.50000000E-01
                     3.75000000E-01  1.25000000E-01 -2.50000000E-01
                    -3.75000000E-01  1.25000000E-01 -2.50000000E-01
                    -1.25000000E-01  1.25000000E-01 -2.50000000E-01
                     1.25000000E-01  3.75000000E-01 -2.50000000E-01
                     3.75000000E-01  3.75000000E-01 -2.50000000E-01
                    -3.75000000E-01  3.75000000E-01 -2.50000000E-01
                    -1.25000000E-01  3.75000000E-01 -2.50000000E-01
                     1.25000000E-01 -3.75000000E-01 -2.50000000E-01
                     3.75000000E-01 -3.75000000E-01 -2.50000000E-01
                    -3.75000000E-01 -3.75000000E-01 -2.50000000E-01
                    -1.25000000E-01 -3.75000000E-01 -2.50000000E-01
                     1.25000000E-01 -1.25000000E-01 -2.50000000E-01
                     3.75000000E-01 -1.25000000E-01 -2.50000000E-01
                    -3.75000000E-01 -1.25000000E-01 -2.50000000E-01
                    -1.25000000E-01 -1.25000000E-01 -2.50000000E-01
          kptrlen    2.24011428E+01
           kptopt         4
         kptrlatt    4  0  0   0  4  0   0  0  2
P           mkmem         4
            natom         4
            nband        60
            ngfft        40      40      80
             nkpt        32
           nspden         4
          nspinor         2
            nstep       120
             nsym         2
           ntypat         2
              occ    1.000000  1.000000  1.000000  1.000000  1.000000  1.000000
                     1.000000  1.000000  1.000000  1.000000  1.000000  1.000000
                     1.000000  1.000000  1.000000  1.000000  1.000000  1.000000
                     1.000000  1.000000  1.000000  1.000000  1.000000  1.000000
                     1.000000  1.000000  1.000000  1.000000  1.000000  1.000000
                     1.000000  1.000000  0.000000  0.000000  0.000000  0.000000
                     0.000000  0.000000  0.000000  0.000000  0.000000  0.000000
                     0.000000  0.000000  0.000000  0.000000  0.000000  0.000000
                     0.000000  0.000000  0.000000  0.000000  0.000000  0.000000
                     0.000000  0.000000  0.000000  0.000000  0.000000  0.000000
                     1.000000  1.000000  1.000000  1.000000  1.000000  1.000000
                     1.000000  1.000000  1.000000  1.000000  1.000000  1.000000
                     1.000000  1.000000  1.000000  1.000000  1.000000  1.000000
                     1.000000  1.000000  1.000000  1.000000  1.000000  1.000000
                     1.000000  1.000000  1.000000  1.000000  1.000000  1.000000
                     1.000000  1.000000  0.000000  0.000000  0.000000  0.000000
                     0.000000  0.000000  0.000000  0.000000  0.000000  0.000000
                     0.000000  0.000000  0.000000  0.000000  0.000000  0.000000
                     0.000000  0.000000  0.000000  0.000000  0.000000  0.000000
                     0.000000  0.000000  0.000000  0.000000  0.000000  0.000000
                     1.000000  1.000000  1.000000  1.000000  1.000000  1.000000
                     1.000000  1.000000  1.000000  1.000000  1.000000  1.000000
                     1.000000  1.000000  1.000000  1.000000  1.000000  1.000000
                     1.000000  1.000000  1.000000  1.000000  1.000000  1.000000
                     1.000000  1.000000  1.000000  1.000000  1.000000  1.000000
                     1.000000  1.000000  0.000000  0.000000  0.000000  0.000000
                     0.000000  0.000000  0.000000  0.000000  0.000000  0.000000
                     0.000000  0.000000  0.000000  0.000000  0.000000  0.000000
                     0.000000  0.000000  0.000000  0.000000  0.000000  0.000000
                     0.000000  0.000000  0.000000  0.000000  0.000000  0.000000
                     1.000000  1.000000  1.000000  1.000000  1.000000  1.000000
                     1.000000  1.000000  1.000000  1.000000  1.000000  1.000000
                     1.000000  1.000000  1.000000  1.000000  1.000000  1.000000
                     1.000000  1.000000  1.000000  1.000000  1.000000  1.000000
                     1.000000  1.000000  1.000000  1.000000  1.000000  1.000000
                     1.000000  1.000000  0.000000  0.000000  0.000000  0.000000
                     0.000000  0.000000  0.000000  0.000000  0.000000  0.000000
                     0.000000  0.000000  0.000000  0.000000  0.000000  0.000000
                     0.000000  0.000000  0.000000  0.000000  0.000000  0.000000
                     0.000000  0.000000  0.000000  0.000000  0.000000  0.000000
                     1.000000  1.000000  1.000000  1.000000  1.000000  1.000000
                     1.000000  1.000000  1.000000  1.000000  1.000000  1.000000
                     1.000000  1.000000  1.000000  1.000000  1.000000  1.000000
                     1.000000  1.000000  1.000000  1.000000  1.000000  1.000000
                     1.000000  1.000000  1.000000  1.000000  1.000000  1.000000
                     1.000000  1.000000  0.000000  0.000000  0.000000  0.000000
                     0.000000  0.000000  0.000000  0.000000  0.000000  0.000000
                     0.000000  0.000000  0.000000  0.000000  0.000000  0.000000
                     0.000000  0.000000  0.000000  0.000000  0.000000  0.000000
                     0.000000  0.000000  0.000000  0.000000  0.000000  0.000000
                     1.000000  1.000000  1.000000  1.000000  1.000000  1.000000
                     1.000000  1.000000  1.000000  1.000000  1.000000  1.000000
                     1.000000  1.000000  1.000000  1.000000  1.000000  1.000000
                     1.000000  1.000000  1.000000  1.000000  1.000000  1.000000
                     1.000000  1.000000  1.000000  1.000000  1.000000  1.000000
                     1.000000  1.000000  0.000000  0.000000  0.000000  0.000000
                     0.000000  0.000000  0.000000  0.000000  0.000000  0.000000
                     0.000000  0.000000  0.000000  0.000000  0.000000  0.000000
                     0.000000  0.000000  0.000000  0.000000  0.000000  0.000000
                     0.000000  0.000000  0.000000  0.000000  0.000000  0.000000
                     1.000000  1.000000  1.000000  1.000000  1.000000  1.000000
[...]
                     1.000000  1.000000  0.000000  0.000000  0.000000  0.000000
                     0.000000  0.000000  0.000000  0.000000  0.000000  0.000000
                     0.000000  0.000000  0.000000  0.000000  0.000000  0.000000
                     0.000000  0.000000  0.000000  0.000000  0.000000  0.000000
                     0.000000  0.000000  0.000000  0.000000  0.000000  0.000000
                     1.000000  1.000000  1.000000  1.000000  1.000000  1.000000
                     1.000000  1.000000  1.000000  1.000000  1.000000  1.000000
                     1.000000  1.000000  1.000000  1.000000  1.000000  1.000000
                     1.000000  1.000000  1.000000  1.000000  1.000000  1.000000
                     1.000000  1.000000  1.000000  1.000000  1.000000  1.000000
                     1.000000  1.000000  0.000000  0.000000  0.000000  0.000000
                     0.000000  0.000000  0.000000  0.000000  0.000000  0.000000
                     0.000000  0.000000  0.000000  0.000000  0.000000  0.000000
                     0.000000  0.000000  0.000000  0.000000  0.000000  0.000000
                     0.000000  0.000000  0.000000  0.000000  0.000000  0.000000
           occopt         7
        prtdensph         1
            rprim    0.0000000000E+00  5.0000000000E-01  5.0000000000E-01
                     5.0000000000E-01  0.0000000000E+00  5.0000000000E-01
                     1.0000000000E+00  1.0000000000E+00  0.0000000000E+00
           shiftk    5.00000000E-01  5.00000000E-01  5.00000000E-01
           spinat    0.0000000000E+00  0.0000000000E+00  1.0000000000E+00
                     0.0000000000E+00  0.0000000000E+00 -1.0000000000E+00
                     0.0000000000E+00  0.0000000000E+00  0.0000000000E+00
                     0.0000000000E+00  0.0000000000E+00  0.0000000000E+00
           strten    4.7691841027E-04  4.7691841632E-04  4.7122203306E-04
                    -5.8546852227E-07 -5.8547439036E-07  1.6628990887E-05
           symafm    1 -1
            tnons    0.0000000  0.0000000  0.0000000     0.0000000  0.0000000  0.5000000
           toldfe    1.00000000E-08 Hartree
           tsmear    9.50044626E-04 Hartree
            typat    1  1  2  2
              wtk      0.03125    0.03125    0.03125    0.03125    0.03125    0.03125
                       0.03125    0.03125    0.03125    0.03125    0.03125    0.03125
                       0.03125    0.03125    0.03125    0.03125    0.03125    0.03125
                       0.03125    0.03125    0.03125    0.03125    0.03125    0.03125
                       0.03125    0.03125    0.03125    0.03125    0.03125    0.03125
                       0.03125    0.03125
           xangst    0.0000000000E+00  0.0000000000E+00  0.0000000000E+00
                     2.0955417460E+00  2.0955417460E+00  0.0000000000E+00
                     2.0955417460E+00  2.0955417460E+00  2.0955417460E+00
                     4.1910834920E+00  4.1910834920E+00  2.0955417460E+00
            xcart    0.0000000000E+00  0.0000000000E+00  0.0000000000E+00
                     3.9600000000E+00  3.9600000000E+00  0.0000000000E+00
                     3.9600000000E+00  3.9600000000E+00  3.9600000000E+00
                     7.9200000000E+00  7.9200000000E+00  3.9600000000E+00
             xred    0.0000000000E+00  0.0000000000E+00  0.0000000000E+00
                     0.0000000000E+00  0.0000000000E+00  5.0000000000E-01
                     5.0000000000E-01  5.0000000000E-01  2.5000000000E-01
                     5.0000000000E-01  5.0000000000E-01  7.5000000000E-01
            znucl     28.00000    8.00000

- Timing analysis has been suppressed with timopt=0

 Suggested references for the acknowledgment of ABINIT usage.

 [1] ABINIT : First-principles approach of materials and nanosystem properties.
 X. Gonze, B. Amadon, P.-M. Anglade, J.-M. Beuken, F. Bottin, P. Boulanger, F. Bruneval,
 D. Caliste, R. Caracas, M. Cote, T. Deutsch, L. Genovese, Ph. Ghosez, M. Giantomassi
 S. Goedecker, D.R. Hamann, P. Hermet, F. Jollet, G. Jomard, S. Leroux, M. Mancini, S. Mazevet,
 M.J.T. Oliveira, G. Onida, Y. Pouillon, T. Rangel, G.-M. Rignanese, D. Sangalli, R. Shaltaf,
 M. Torrent, M.J. Verstraete, G. Zerah, J.W. Zwanziger
 Computer Phys. Comm. 180, 2582-2615 (2009).
 Comment : the third generic paper describing the ABINIT project.
 Note that a version of this paper, that is not formatted for Computer Phys. Comm.
 The licence allows the authors to put it on the Web.

 [2] A brief introduction to the ABINIT software package.
 X. Gonze, G.-M. Rignanese, M. Verstraete, J.-M. Beuken, Y. Pouillon, R. Caracas, F. Jollet,
 M. Torrent, G. Zerah, M. Mikami, Ph. Ghosez, M. Veithen, J.-Y. Raty, V. Olevano, F. Bruneval,
 L. Reining, R. Godby, G. Onida, D.R. Hamann, and D.C. Allan.
 Z. Kristallogr. 220, 558-562 (2005).
 Comment : the second generic paper describing the ABINIT project. Note that this paper
 should be cited especially if you are using the GW part of ABINIT, as several authors
 of this part are not in the list of authors of the first or third paper.
 Note that it should not redistributed (Copyright by Oldenburg Wissenshaftverlag,
 the licence allows the authors to put it on the Web).

 And optionally :

 [3] First-principles computation of material properties : the ABINIT software project.
 X. Gonze, J.-M. Beuken, R. Caracas, F. Detraux, M. Fuchs, G.-M. Rignanese, L. Sindic,
 M. Verstraete, G. Zerah, F. Jollet, M. Torrent, A. Roy, M. Mikami, Ph. Ghosez, J.-Y. Raty, D.C. Allan.
 Comment : the original paper describing the ABINIT project.

 [4] Fast radix 2, 3, 4 and 5 kernels for Fast Fourier Transformations
 on computers with overlapping multiply-add instructions.
 S. Goedecker, SIAM J. on Scientific Computing 18, 1605 (1997).
-

 Calculation completed.
.Delivered    6 WARNINGs and   0 COMMENTs to log file.