.Version 8.0.8 of ABINIT

 ABINIT is a project of the Universite Catholique de Louvain,
 Corning Inc. and other collaborators, see ~abinit/doc/developers/contributors.txt .
 Please read ~abinit/doc/users/acknowledgments.html for suggested
 acknowledgments of the ABINIT effort.

.Starting date : Thu  2 Mar 2017.
- ( at 12h56 )

- input  file    -> si2_ef.in
- output file    -> si2_ef.out
- root for input  files -> si2_efi
- root for output files -> si2_efo

 DATASET    1 : space group Fd -3 m (#227); Bravais cF (face-center cubic)
     intxc =       0    ionmov =       0      iscf =       7    lmnmax =       2
     lnmax =       2     mgfft =      24  mpssoang =       3    mqgrid =    3001
     natom =       2  nloc_mem =       1    nspden =       1   nspinor =       1
    nsppol =       1      nsym =      48    n1xccc =    2501    ntypat =       1
    occopt =       1   xclevel =       1
-    mband =           4        mffmem =           1         mkmem =          23
       mpw =         419          nfft =       13824          nkpt =         182
  Rough estimation (10% accuracy) of disk space for files :

 DATASET    2 : space group I4_1 m d (#109); Bravais tI (body-center tetrag.)
     intxc =       0    ionmov =       0      iscf =       7    lmnmax =       2
     lnmax =       2     mgfft =      24  mpssoang =       3    mqgrid =    3001
     natom =       2  nloc_mem =       1    nspden =       1   nspinor =       1
    nsppol =       1      nsym =       8    n1xccc =    2501    ntypat =       1
    occopt =       1   xclevel =       1
-    mband =           4        mffmem =           1         mkmem =          59
       mpw =         419          nfft =       13824          nkpt =         468
  Rough estimation (10% accuracy) of disk space for files :

[...]

 DATASET    7 : space group I4_1 m d (#109); Bravais tI (body-center tetrag.)
     intxc =       0    ionmov =       0      iscf =       7    lmnmax =       2
     lnmax =       2     mgfft =      24  mpssoang =       3    mqgrid =    3001
     natom =       2  nloc_mem =       1    nspden =       1   nspinor =       1
    nsppol =       1      nsym =       8    n1xccc =    2501    ntypat =       1
    occopt =       1   xclevel =       1
-    mband =           4        mffmem =           1         mkmem =          59
       mpw =         419          nfft =       13824          nkpt =         468
  Rough estimation (10% accuracy) of disk space for files :

------------- Echo of variables that govern the present computation ------------
-
- outvars: echo of selected default values
-   iomode0 =  0 , fftalg0 =112 , wfoptalg0 =  0
-
- outvars: echo of global parameters not present in the input file
-  max_nthreads =    0
-
 -outvars: echo values of preprocessed input variables --------
            acell      1.0261212902E+01  1.0261212902E+01  1.0261212902E+01 Bohr
              amu      2.80855000E+01
         berryopt1         -1
         berryopt2          4
         berryopt3          4
         berryopt4          4
         berryopt5          4
         berryopt6          4
         berryopt7          4
           diemac      1.20000000E+01
             ecut      1.00000000E+01 Hartree
           efield1     0.00000000E+00  0.00000000E+00  0.00000000E+00
           efield2     1.00000000E-03  0.00000000E+00  0.00000000E+00
           efield3    -1.00000000E-03  0.00000000E+00  0.00000000E+00
           efield4     0.00000000E+00  1.00000000E-03  0.00000000E+00
           efield5     0.00000000E+00 -1.00000000E-03  0.00000000E+00
           efield6     0.00000000E+00  0.00000000E+00  1.00000000E-03
           efield7     0.00000000E+00  0.00000000E+00 -1.00000000E-03
-          fftalg         112
           getwfk1          0
           getwfk2          1
           getwfk3          1
           getwfk4          1
           getwfk5          1
           getwfk6          1
           getwfk7          1
              ixc           7
           jdtset        1    2    3    4    5    6    7
              kpt1    -4.16666667E-02 -8.33333333E-02  0.00000000E+00
                      -4.16666667E-02 -1.66666667E-01  0.00000000E+00
                      -8.33333333E-02 -1.25000000E-01  0.00000000E+00
                      -4.16666667E-02 -1.25000000E-01  4.16666667E-02
                      -4.16666667E-02 -2.50000000E-01  0.00000000E+00
                      -8.33333333E-02 -2.08333333E-01  0.00000000E+00
                      -4.16666667E-02 -2.08333333E-01  4.16666667E-02
                      -1.25000000E-01 -1.66666667E-01  0.00000000E+00
                      -8.33333333E-02 -1.66666667E-01  4.16666667E-02
                      -4.16666667E-02 -1.66666667E-01  8.33333333E-02
                      -4.16666667E-02 -3.33333333E-01  0.00000000E+00
                      -8.33333333E-02 -2.91666667E-01  0.00000000E+00
                      -4.16666667E-02 -2.91666667E-01  4.16666667E-02
                      -1.25000000E-01 -2.50000000E-01  0.00000000E+00
                      -8.33333333E-02 -2.50000000E-01  4.16666667E-02
                      -4.16666667E-02 -2.50000000E-01  8.33333333E-02
                      -1.66666667E-01 -2.08333333E-01  0.00000000E+00
                      -1.25000000E-01 -2.08333333E-01  4.16666667E-02
                      -8.33333333E-02 -2.08333333E-01  8.33333333E-02
                      -4.16666667E-02 -2.08333333E-01  1.25000000E-01
                      -4.16666667E-02 -4.16666667E-01  0.00000000E+00
                      -8.33333333E-02 -3.75000000E-01  0.00000000E+00
                      -4.16666667E-02 -3.75000000E-01  4.16666667E-02
                      -1.25000000E-01 -3.33333333E-01  0.00000000E+00
                      -8.33333333E-02 -3.33333333E-01  4.16666667E-02
                      -4.16666667E-02 -3.33333333E-01  8.33333333E-02
                      -1.66666667E-01 -2.91666667E-01  0.00000000E+00
                      -1.25000000E-01 -2.91666667E-01  4.16666667E-02
                      -8.33333333E-02 -2.91666667E-01  8.33333333E-02
                      -4.16666667E-02 -2.91666667E-01  1.25000000E-01
                      -2.08333333E-01 -2.50000000E-01  0.00000000E+00
                      -1.66666667E-01 -2.50000000E-01  4.16666667E-02
                      -1.25000000E-01 -2.50000000E-01  8.33333333E-02
                      -8.33333333E-02 -2.50000000E-01  1.25000000E-01
                      -4.16666667E-02 -2.50000000E-01  1.66666667E-01
                      -4.16666667E-02  5.00000000E-01  0.00000000E+00
                      -8.33333333E-02 -4.58333333E-01  0.00000000E+00
                      -4.16666667E-02 -4.58333333E-01  4.16666667E-02
                      -1.25000000E-01 -4.16666667E-01  0.00000000E+00
                      -8.33333333E-02 -4.16666667E-01  4.16666667E-02
                      -4.16666667E-02 -4.16666667E-01  8.33333333E-02
                      -1.66666667E-01 -3.75000000E-01  0.00000000E+00
                      -1.25000000E-01 -3.75000000E-01  4.16666667E-02
                      -8.33333333E-02 -3.75000000E-01  8.33333333E-02
                      -4.16666667E-02 -3.75000000E-01  1.25000000E-01
                      -2.08333333E-01 -3.33333333E-01  0.00000000E+00
                      -1.66666667E-01 -3.33333333E-01  4.16666667E-02
                      -1.25000000E-01 -3.33333333E-01  8.33333333E-02
                      -8.33333333E-02 -3.33333333E-01  1.25000000E-01
                      -4.16666667E-02 -3.33333333E-01  1.66666667E-01
              kpt2    -4.16666667E-02 -8.33333333E-02  0.00000000E+00
                      -4.16666667E-02 -1.66666667E-01  0.00000000E+00
                      -8.33333333E-02 -1.25000000E-01  0.00000000E+00
                      -4.16666667E-02 -1.25000000E-01  4.16666667E-02
                      -1.25000000E-01 -4.16666667E-02  4.16666667E-02
                      -4.16666667E-02 -2.50000000E-01  0.00000000E+00
                      -8.33333333E-02 -2.08333333E-01  0.00000000E+00
                      -4.16666667E-02 -2.08333333E-01  4.16666667E-02
                      -1.25000000E-01 -1.66666667E-01  0.00000000E+00
                      -8.33333333E-02 -1.66666667E-01  4.16666667E-02
                      -4.16666667E-02 -1.66666667E-01  8.33333333E-02
                      -1.66666667E-01 -8.33333333E-02  4.16666667E-02
                      -2.08333333E-01 -4.16666667E-02  4.16666667E-02
                      -1.66666667E-01 -4.16666667E-02  8.33333333E-02
                      -4.16666667E-02 -3.33333333E-01  0.00000000E+00
                      -8.33333333E-02 -2.91666667E-01  0.00000000E+00
                      -4.16666667E-02 -2.91666667E-01  4.16666667E-02
                      -1.25000000E-01 -2.50000000E-01  0.00000000E+00
                      -8.33333333E-02 -2.50000000E-01  4.16666667E-02
                      -4.16666667E-02 -2.50000000E-01  8.33333333E-02
                      -1.66666667E-01 -2.08333333E-01  0.00000000E+00
                      -1.25000000E-01 -2.08333333E-01  4.16666667E-02
                      -8.33333333E-02 -2.08333333E-01  8.33333333E-02
                      -4.16666667E-02 -2.08333333E-01  1.25000000E-01
                      -2.08333333E-01 -1.25000000E-01  4.16666667E-02
                      -2.50000000E-01 -8.33333333E-02  4.16666667E-02
                      -2.08333333E-01 -8.33333333E-02  8.33333333E-02
                      -2.91666667E-01 -4.16666667E-02  4.16666667E-02
                      -2.50000000E-01 -4.16666667E-02  8.33333333E-02
                      -2.08333333E-01 -4.16666667E-02  1.25000000E-01
                      -4.16666667E-02 -4.16666667E-01  0.00000000E+00
                      -8.33333333E-02 -3.75000000E-01  0.00000000E+00
                      -4.16666667E-02 -3.75000000E-01  4.16666667E-02
                      -1.25000000E-01 -3.33333333E-01  0.00000000E+00
                      -8.33333333E-02 -3.33333333E-01  4.16666667E-02
                      -4.16666667E-02 -3.33333333E-01  8.33333333E-02
                      -1.66666667E-01 -2.91666667E-01  0.00000000E+00
                      -1.25000000E-01 -2.91666667E-01  4.16666667E-02
                      -8.33333333E-02 -2.91666667E-01  8.33333333E-02
                      -4.16666667E-02 -2.91666667E-01  1.25000000E-01
                      -2.08333333E-01 -2.50000000E-01  0.00000000E+00
                      -1.66666667E-01 -2.50000000E-01  4.16666667E-02
                      -1.25000000E-01 -2.50000000E-01  8.33333333E-02
                      -8.33333333E-02 -2.50000000E-01  1.25000000E-01
                      -4.16666667E-02 -2.50000000E-01  1.66666667E-01
                      -2.50000000E-01 -1.66666667E-01  4.16666667E-02
                      -2.91666667E-01 -1.25000000E-01  4.16666667E-02
                      -2.50000000E-01 -1.25000000E-01  8.33333333E-02
                      -3.33333333E-01 -8.33333333E-02  4.16666667E-02
                      -2.91666667E-01 -8.33333333E-02  8.33333333E-02
              kpt3    -4.16666667E-02 -8.33333333E-02  0.00000000E+00
                      -4.16666667E-02 -1.66666667E-01  0.00000000E+00
[...]
                       5.0000000000E-01  0.0000000000E+00  5.0000000000E-01
                       5.0000000000E-01  5.0000000000E-01  0.0000000000E+00
           shiftk      5.00000000E-01  5.00000000E-01  5.00000000E-01
          spgroup1        227
          spgroup2        109
          spgroup3        109
          spgroup4        109
          spgroup5        109
          spgroup6        109
          spgroup7        109
           strten1     7.4962291628E-05  7.4962291628E-05  7.4962291628E-05
                       0.0000000000E+00  0.0000000000E+00  0.0000000000E+00
           strten2     7.5663239450E-05  7.5479788188E-05  7.5479788188E-05
                       0.0000000000E+00  0.0000000000E+00  0.0000000000E+00
           strten3     7.5663236559E-05  7.5479784959E-05  7.5479784959E-05
                       0.0000000000E+00  0.0000000000E+00  0.0000000000E+00
           strten4     7.6479031564E-05  7.6771366103E-05  7.6479031564E-05
                       0.0000000000E+00  0.0000000000E+00  0.0000000000E+00
           strten5     7.6479038741E-05  7.6771371557E-05  7.6479038741E-05
                       0.0000000000E+00  0.0000000000E+00  0.0000000000E+00
           strten6     7.4737219799E-05  7.4737219799E-05  7.4792096288E-05
                       0.0000000000E+00  0.0000000000E+00  0.0000000000E+00
           strten7     7.4737185212E-05  7.4737185212E-05  7.4791979781E-05
                       0.0000000000E+00  0.0000000000E+00  0.0000000000E+00
           symafm1       1    1    1    1    1    1    1    1    1    1
                         1    1    1    1    1    1    1    1    1    1
                         1    1    1    1    1    1    1    1    1    1
                         1    1    1    1    1    1    1    1    1    1
                         1    1    1    1    1    1    1    1
           symafm2       1    1    1    1    1    1    1    1
           symafm3       1    1    1    1    1    1    1    1
           symafm4       1    1    1    1    1    1    1    1
           symafm5       1    1    1    1    1    1    1    1
           symafm6       1    1    1    1    1    1    1    1
           symafm7       1    1    1    1    1    1    1    1
           symrel1     1  0  0   0  1  0   0  0  1      -1  0  0   0 -1  0   0  0 -1
                       0 -1  1   0 -1  0   1 -1  0       0  1 -1   0  1  0  -1  1  0
                      -1  0  0  -1  0  1  -1  1  0       1  0  0   1  0 -1   1 -1  0
                       0  1 -1   1  0 -1   0  0 -1       0 -1  1  -1  0  1   0  0  1
                      -1  0  0  -1  1  0  -1  0  1       1  0  0   1 -1  0   1  0 -1
                       0 -1  1   1 -1  0   0 -1  0       0  1 -1  -1  1  0   0  1  0
                       1  0  0   0  0  1   0  1  0      -1  0  0   0  0 -1   0 -1  0
                       0  1 -1   0  0 -1   1  0 -1       0 -1  1   0  0  1  -1  0  1
                      -1  0  1  -1  1  0  -1  0  0       1  0 -1   1 -1  0   1  0  0
                       0 -1  0   1 -1  0   0 -1  1       0  1  0  -1  1  0   0  1 -1
                       1  0 -1   0  0 -1   0  1 -1      -1  0  1   0  0  1   0 -1  1
                       0  1  0   0  0  1   1  0  0       0 -1  0   0  0 -1  -1  0  0
                       1  0 -1   0  1 -1   0  0 -1      -1  0  1   0 -1  1   0  0  1
                       0 -1  0   0 -1  1   1 -1  0       0  1  0   0  1 -1  -1  1  0
                      -1  0  1  -1  0  0  -1  1  0       1  0 -1   1  0  0   1 -1  0
                       0  1  0   1  0  0   0  0  1       0 -1  0  -1  0  0   0  0 -1
                       0  0 -1   0  1 -1   1  0 -1       0  0  1   0 -1  1  -1  0  1
                       1 -1  0   0 -1  1   0 -1  0      -1  1  0   0  1 -1   0  1  0
                       0  0  1   1  0  0   0  1  0       0  0 -1  -1  0  0   0 -1  0
                      -1  1  0  -1  0  0  -1  0  1       1 -1  0   1  0  0   1  0 -1
                       0  0  1   0  1  0   1  0  0       0  0 -1   0 -1  0  -1  0  0
                       1 -1  0   0 -1  0   0 -1  1      -1  1  0   0  1  0   0  1 -1
                       0  0 -1   1  0 -1   0  1 -1       0  0  1  -1  0  1   0 -1  1
                      -1  1  0  -1  0  1  -1  0  0       1 -1  0   1  0 -1   1  0  0
           symrel2     1  0  0   0  1  0   0  0  1       0  1 -1   0  1  0  -1  1  0
                      -1  0  0  -1  0  1  -1  1  0       0 -1  1  -1  0  1   0  0  1
                      -1  0  0  -1  1  0  -1  0  1       0  1 -1  -1  1  0   0  1  0
                       1  0  0   0  0  1   0  1  0       0 -1  1   0  0  1  -1  0  1
           symrel3     1  0  0   0  1  0   0  0  1       0  1 -1   0  1  0  -1  1  0
                      -1  0  0  -1  0  1  -1  1  0       0 -1  1  -1  0  1   0  0  1
                      -1  0  0  -1  1  0  -1  0  1       0  1 -1  -1  1  0   0  1  0
                       1  0  0   0  0  1   0  1  0       0 -1  1   0  0  1  -1  0  1
           symrel4     1  0  0   0  1  0   0  0  1       0 -1  1   0 -1  0   1 -1  0
                       1  0  0   1  0 -1   1 -1  0       0 -1  1  -1  0  1   0  0  1
                       0  0  1   0  1  0   1  0  0       1 -1  0   0 -1  0   0 -1  1
                       0  0  1  -1  0  1   0 -1  1       1 -1  0   1  0 -1   1  0  0
           symrel5     1  0  0   0  1  0   0  0  1       0 -1  1   0 -1  0   1 -1  0
                       1  0  0   1  0 -1   1 -1  0       0 -1  1  -1  0  1   0  0  1
                       0  0  1   0  1  0   1  0  0       1 -1  0   0 -1  0   0 -1  1
                       0  0  1  -1  0  1   0 -1  1       1 -1  0   1  0 -1   1  0  0
           symrel6     1  0  0   0  1  0   0  0  1       0  1 -1   0  1  0  -1  1  0
                       1  0  0   1  0 -1   1 -1  0       0  1 -1   1  0 -1   0  0 -1
                       1  0 -1   0  1 -1   0  0 -1       0  1  0   0  1 -1  -1  1  0
                       1  0 -1   1  0  0   1 -1  0       0  1  0   1  0  0   0  0  1
           symrel7     1  0  0   0  1  0   0  0  1       0  1 -1   0  1  0  -1  1  0
                       1  0  0   1  0 -1   1 -1  0       0  1 -1   1  0 -1   0  0 -1
                       1  0 -1   0  1 -1   0  0 -1       0  1  0   0  1 -1  -1  1  0
                       1  0 -1   1  0  0   1 -1  0       0  1  0   1  0  0   0  0  1
            tnons1     0.0000000  0.0000000  0.0000000     0.2500000  0.2500000  0.2500000
                       0.0000000  0.0000000  0.0000000     0.2500000  0.2500000  0.2500000
                       0.0000000  0.0000000  0.0000000     0.2500000  0.2500000  0.2500000
                       0.0000000  0.0000000  0.0000000     0.2500000  0.2500000  0.2500000
                       0.0000000  0.0000000  0.0000000     0.2500000  0.2500000  0.2500000
                       0.0000000  0.0000000  0.0000000     0.2500000  0.2500000  0.2500000
                       0.0000000  0.0000000  0.0000000     0.2500000  0.2500000  0.2500000
                       0.0000000  0.0000000  0.0000000     0.2500000  0.2500000  0.2500000
                       0.0000000  0.0000000  0.0000000     0.2500000  0.2500000  0.2500000
                       0.0000000  0.0000000  0.0000000     0.2500000  0.2500000  0.2500000
                       0.0000000  0.0000000  0.0000000     0.2500000  0.2500000  0.2500000
                       0.0000000  0.0000000  0.0000000     0.2500000  0.2500000  0.2500000
                       0.0000000  0.0000000  0.0000000     0.2500000  0.2500000  0.2500000
                       0.0000000  0.0000000  0.0000000     0.2500000  0.2500000  0.2500000
                       0.0000000  0.0000000  0.0000000     0.2500000  0.2500000  0.2500000
                       0.0000000  0.0000000  0.0000000     0.2500000  0.2500000  0.2500000
                       0.0000000  0.0000000  0.0000000     0.2500000  0.2500000  0.2500000
                       0.0000000  0.0000000  0.0000000     0.2500000  0.2500000  0.2500000
                       0.0000000  0.0000000  0.0000000     0.2500000  0.2500000  0.2500000
                       0.0000000  0.0000000  0.0000000     0.2500000  0.2500000  0.2500000
                       0.0000000  0.0000000  0.0000000     0.2500000  0.2500000  0.2500000
                       0.0000000  0.0000000  0.0000000     0.2500000  0.2500000  0.2500000
                       0.0000000  0.0000000  0.0000000     0.2500000  0.2500000  0.2500000
                       0.0000000  0.0000000  0.0000000     0.2500000  0.2500000  0.2500000
            tnons2     0.0000000  0.0000000  0.0000000     0.2500000  0.2500000  0.2500000
                       0.0000000  0.0000000  0.0000000     0.2500000  0.2500000  0.2500000
                       0.0000000  0.0000000  0.0000000     0.2500000  0.2500000  0.2500000
                       0.0000000  0.0000000  0.0000000     0.2500000  0.2500000  0.2500000
            tnons3     0.0000000  0.0000000  0.0000000     0.2500000  0.2500000  0.2500000
                       0.0000000  0.0000000  0.0000000     0.2500000  0.2500000  0.2500000
                       0.0000000  0.0000000  0.0000000     0.2500000  0.2500000  0.2500000
                       0.0000000  0.0000000  0.0000000     0.2500000  0.2500000  0.2500000
            tnons4     0.0000000  0.0000000  0.0000000     0.0000000  0.0000000  0.0000000
                       0.2500000  0.2500000  0.2500000     0.2500000  0.2500000  0.2500000
                       0.0000000  0.0000000  0.0000000     0.0000000  0.0000000  0.0000000
                       0.2500000  0.2500000  0.2500000     0.2500000  0.2500000  0.2500000
            tnons5     0.0000000  0.0000000  0.0000000     0.0000000  0.0000000  0.0000000
                       0.2500000  0.2500000  0.2500000     0.2500000  0.2500000  0.2500000
                       0.0000000  0.0000000  0.0000000     0.0000000  0.0000000  0.0000000
                       0.2500000  0.2500000  0.2500000     0.2500000  0.2500000  0.2500000
            tnons6     0.0000000  0.0000000  0.0000000     0.2500000  0.2500000  0.2500000
                       0.2500000  0.2500000  0.2500000     0.0000000  0.0000000  0.0000000
                       0.0000000  0.0000000  0.0000000     0.2500000  0.2500000  0.2500000
                       0.2500000  0.2500000  0.2500000     0.0000000  0.0000000  0.0000000
            tnons7     0.0000000  0.0000000  0.0000000     0.2500000  0.2500000  0.2500000
                       0.2500000  0.2500000  0.2500000     0.0000000  0.0000000  0.0000000
                       0.0000000  0.0000000  0.0000000     0.2500000  0.2500000  0.2500000
                       0.2500000  0.2500000  0.2500000     0.0000000  0.0000000  0.0000000
           toldfe      1.00000000E-12 Hartree
            typat      1  1
              wtk1       0.00347    0.00347    0.00347    0.00694    0.00347    0.00347
                         0.00694    0.00347    0.00694    0.00694    0.00347    0.00347
                         0.00694    0.00347    0.00694    0.00694    0.00347    0.00694
                         0.00694    0.00694    0.00347    0.00347    0.00694    0.00347
                         0.00694    0.00694    0.00347    0.00694    0.00694    0.00694
                         0.00347    0.00694    0.00694    0.00694    0.00694    0.00347
                         0.00347    0.00694    0.00347    0.00694    0.00694    0.00347
                         0.00694    0.00694    0.00694    0.00347    0.00694    0.00694
                         0.00694    0.00694
              wtk2       0.00231    0.00231    0.00231    0.00231    0.00231    0.00231
                         0.00231    0.00231    0.00231    0.00231    0.00231    0.00231
                         0.00231    0.00231    0.00231    0.00231    0.00231    0.00231
                         0.00231    0.00231    0.00231    0.00231    0.00231    0.00231
                         0.00231    0.00231    0.00231    0.00231    0.00231    0.00231
                         0.00231    0.00231    0.00231    0.00231    0.00231    0.00231
                         0.00231    0.00231    0.00231    0.00231    0.00231    0.00231
                         0.00231    0.00231    0.00231    0.00231    0.00231    0.00231
                         0.00231    0.00231
              wtk3       0.00231    0.00231    0.00231    0.00231    0.00231    0.00231
                         0.00231    0.00231    0.00231    0.00231    0.00231    0.00231
                         0.00231    0.00231    0.00231    0.00231    0.00231    0.00231
                         0.00231    0.00231    0.00231    0.00231    0.00231    0.00231
                         0.00231    0.00231    0.00231    0.00231    0.00231    0.00231
                         0.00231    0.00231    0.00231    0.00231    0.00231    0.00231
                         0.00231    0.00231    0.00231    0.00231    0.00231    0.00231
                         0.00231    0.00231    0.00231    0.00231    0.00231    0.00231
                         0.00231    0.00231
              wtk4       0.00231    0.00231    0.00231    0.00231    0.00231    0.00231
                         0.00231    0.00231    0.00231    0.00231    0.00231    0.00231
                         0.00231    0.00231    0.00231    0.00231    0.00231    0.00231
                         0.00231    0.00231    0.00231    0.00231    0.00231    0.00231
                         0.00231    0.00231    0.00231    0.00231    0.00231    0.00231
                         0.00231    0.00231    0.00231    0.00231    0.00231    0.00231
                         0.00231    0.00231    0.00231    0.00231    0.00231    0.00231
                         0.00231    0.00231    0.00231    0.00231    0.00231    0.00231
                         0.00231    0.00231
              wtk5       0.00231    0.00231    0.00231    0.00231    0.00231    0.00231
                         0.00231    0.00231    0.00231    0.00231    0.00231    0.00231
                         0.00231    0.00231    0.00231    0.00231    0.00231    0.00231
                         0.00231    0.00231    0.00231    0.00231    0.00231    0.00231
                         0.00231    0.00231    0.00231    0.00231    0.00231    0.00231
                         0.00231    0.00231    0.00231    0.00231    0.00231    0.00231
                         0.00231    0.00231    0.00231    0.00231    0.00231    0.00231
                         0.00231    0.00231    0.00231    0.00231    0.00231    0.00231
                         0.00231    0.00231
              wtk6       0.00116    0.00116    0.00116    0.00231    0.00116    0.00116
                         0.00231    0.00116    0.00231    0.00231    0.00116    0.00116
                         0.00231    0.00116    0.00231    0.00231    0.00116    0.00231
                         0.00231    0.00231    0.00116    0.00116    0.00231    0.00116
                         0.00231    0.00231    0.00116    0.00231    0.00231    0.00231
                         0.00116    0.00231    0.00231    0.00231    0.00231    0.00116
                         0.00116    0.00231    0.00116    0.00231    0.00231    0.00116
                         0.00231    0.00231    0.00231    0.00116    0.00231    0.00231
                         0.00231    0.00231
              wtk7       0.00116    0.00116    0.00116    0.00231    0.00116    0.00116
                         0.00231    0.00116    0.00231    0.00231    0.00116    0.00116
                         0.00231    0.00116    0.00231    0.00231    0.00116    0.00231
                         0.00231    0.00231    0.00116    0.00116    0.00231    0.00116
                         0.00231    0.00231    0.00116    0.00231    0.00231    0.00231
                         0.00116    0.00231    0.00231    0.00231    0.00231    0.00116
                         0.00116    0.00231    0.00116    0.00231    0.00231    0.00116
                         0.00231    0.00231    0.00231    0.00116    0.00231    0.00231
                         0.00231    0.00231
                       outvars : Printing only first  50 k-points.
           xangst      0.0000000000E+00  0.0000000000E+00  0.0000000000E+00
                       1.3575000000E+00  1.3575000000E+00  1.3575000000E+00
            xcart      0.0000000000E+00  0.0000000000E+00  0.0000000000E+00
                       2.5653032254E+00  2.5653032254E+00  2.5653032254E+00
             xred      0.0000000000E+00  0.0000000000E+00  0.0000000000E+00
                       2.5000000000E-01  2.5000000000E-01  2.5000000000E-01
            znucl       14.00000

- Timing analysis has been suppressed with timopt=0

 Suggested references for the acknowledgment of ABINIT usage.

 Calculation completed.
.Delivered   0 WARNINGs and  26 COMMENTs to log file.