.Version 6.2.2  of ABINIT

 ABINIT is a project of the Universite Catholique de Louvain,
 Corning Inc. and other collaborators, see ~abinit/doc/developers/contributors.txt .
 Please read ~abinit/doc/users/acknowledgments.html for suggested
 acknowledgments of the ABINIT effort.

.Starting date : Wed 25 Aug 2010.

- input  file    -> test.in
- output file    -> testx.out
- root for input  files -> testxi
- root for output files -> testxo

 Magnetic group, Shubnikov type IV
 Fedorov space group R-3 m (#166)
 Magnetic Bravais lattice hR_I (rhombohedral, centered magnetic, #31)
   intxc =         0  ionmov =         0    iscf =         7 xclevel =         2
  lmnmax =        18   lnmax =         6   mband =        30  mffmem =         1
P  mgfft =        60   mkmem =         1 mpssoang=         3     mpw =      1961
  mqgrid =      3001   natom =         4    nfft =     54000    nkpt =        10
  nloalg =         4  nspden =         2 nspinor =         1  nsppol =         1
    nsym =        24  n1xccc =         1  ntypat =         2  occopt =         7
 PAW method is used; the additional fine FFT grid is defined by:
   mgfftf=        80    nfftf =    128000
  Rough estimation (10% accuracy) of disk space for files :

 -outvars: echo values of preprocessed input variables --------
            acell    7.9200000000E+00  7.9200000000E+00  7.9200000000E+00 Bohr
              amu    5.86900000E+01  1.59994000E+01
      chksymbreak         0
             ecut    3.00000000E+01 Hartree
             iscf         7
              ixc        11
              kpt    1.25000000E-01  1.25000000E-01  2.50000000E-01
                     3.75000000E-01  1.25000000E-01  2.50000000E-01
                    -3.75000000E-01  1.25000000E-01  2.50000000E-01
                    -1.25000000E-01  1.25000000E-01  2.50000000E-01
                     3.75000000E-01  3.75000000E-01  2.50000000E-01
                    -3.75000000E-01  3.75000000E-01  2.50000000E-01
                    -1.25000000E-01  3.75000000E-01  2.50000000E-01
                    -3.75000000E-01 -3.75000000E-01  2.50000000E-01
                    -1.25000000E-01 -3.75000000E-01  2.50000000E-01
                    -1.25000000E-01 -1.25000000E-01  2.50000000E-01
          kptrlen    2.24011428E+01
         kptrlatt    4  0  0   0  4  0   0  0  2
P           mkmem         1
            natom         4
            nband        30
            ngfft        30      30      60
          ngfftdg        40      40      80
             nkpt        10
           nspden         2
            nstep       120
             nsym        24
           ntypat         2
              occ    2.000000  2.000000  2.000000  2.000000  2.000000  2.000000
                     2.000000  2.000000  2.000000  2.000000  2.000000  2.000000
                     2.000000  2.000000  2.000000  2.000000  0.000000  0.000000
                     0.000000  0.000000  0.000000  0.000000  0.000000  0.000000
                     0.000000  0.000000  0.000000  0.000000  0.000000  0.000000
                     2.000000  2.000000  2.000000  2.000000  2.000000  2.000000
                     2.000000  2.000000  2.000000  2.000000  2.000000  2.000000
                     2.000000  2.000000  2.000000  2.000000  0.000000  0.000000
                     0.000000  0.000000  0.000000  0.000000  0.000000  0.000000
                     0.000000  0.000000  0.000000  0.000000  0.000000  0.000000
                     2.000000  2.000000  2.000000  2.000000  2.000000  2.000000
                     2.000000  2.000000  2.000000  2.000000  2.000000  2.000000
                     2.000000  2.000000  2.000000  2.000000  0.000000  0.000000
                     0.000000  0.000000  0.000000  0.000000  0.000000  0.000000
                     0.000000  0.000000  0.000000  0.000000  0.000000  0.000000
                     2.000000  2.000000  2.000000  2.000000  2.000000  2.000000
                     2.000000  2.000000  2.000000  2.000000  2.000000  2.000000
                     2.000000  2.000000  2.000000  2.000000  0.000000  0.000000
                     0.000000  0.000000  0.000000  0.000000  0.000000  0.000000
                     0.000000  0.000000  0.000000  0.000000  0.000000  0.000000
                     2.000000  2.000000  2.000000  2.000000  2.000000  2.000000
                     2.000000  2.000000  2.000000  2.000000  2.000000  2.000000
                     2.000000  2.000000  2.000000  2.000000  0.000000  0.000000
                     0.000000  0.000000  0.000000  0.000000  0.000000  0.000000
                     0.000000  0.000000  0.000000  0.000000  0.000000  0.000000
                     2.000000  2.000000  2.000000  2.000000  2.000000  2.000000
                     2.000000  2.000000  2.000000  2.000000  2.000000  2.000000
                     2.000000  2.000000  2.000000  2.000000  0.000000  0.000000
                     0.000000  0.000000  0.000000  0.000000  0.000000  0.000000
                     0.000000  0.000000  0.000000  0.000000  0.000000  0.000000
                     2.000000  2.000000  2.000000  2.000000  2.000000  2.000000
                     2.000000  2.000000  2.000000  2.000000  2.000000  2.000000
                     2.000000  2.000000  2.000000  2.000000  0.000000  0.000000
                     0.000000  0.000000  0.000000  0.000000  0.000000  0.000000
                     0.000000  0.000000  0.000000  0.000000  0.000000  0.000000
                     2.000000  2.000000  2.000000  2.000000  2.000000  2.000000
                     2.000000  2.000000  2.000000  2.000000  2.000000  2.000000
                     2.000000  2.000000  2.000000  2.000000  0.000000  0.000000
                     0.000000  0.000000  0.000000  0.000000  0.000000  0.000000
                     0.000000  0.000000  0.000000  0.000000  0.000000  0.000000
                     2.000000  2.000000  2.000000  2.000000  2.000000  2.000000
                     2.000000  2.000000  2.000000  2.000000  2.000000  2.000000
                     2.000000  2.000000  2.000000  2.000000  0.000000  0.000000
                     0.000000  0.000000  0.000000  0.000000  0.000000  0.000000
                     0.000000  0.000000  0.000000  0.000000  0.000000  0.000000
                     2.000000  2.000000  2.000000  2.000000  2.000000  2.000000
                     2.000000  2.000000  2.000000  2.000000  2.000000  2.000000
                     2.000000  2.000000  2.000000  2.000000  0.000000  0.000000
                     0.000000  0.000000  0.000000  0.000000  0.000000  0.000000
                     0.000000  0.000000  0.000000  0.000000  0.000000  0.000000
           occopt         7
        pawecutdg    6.00000000E+01 Hartree
        pawprtvol         3
        prtdensph         1
           ratsph    2.31080032E+00  1.21105161E+00 Bohr
            rprim    0.0000000000E+00  5.0000000000E-01  5.0000000000E-01
                     5.0000000000E-01  0.0000000000E+00  5.0000000000E-01
                     1.0000000000E+00  1.0000000000E+00  0.0000000000E+00
           shiftk    5.00000000E-01  5.00000000E-01  5.00000000E-01
          spgroup       166
           spinat    0.0000000000E+00  0.0000000000E+00  1.0000000000E+00
                     0.0000000000E+00  0.0000000000E+00 -1.0000000000E+00
                     0.0000000000E+00  0.0000000000E+00  0.0000000000E+00
                     0.0000000000E+00  0.0000000000E+00  0.0000000000E+00
           symafm    1 -1  1  -1  1 -1   1 -1  1      -1  1 -1   1 -1  1  -1  1 -1
                     1 -1  1  -1  1 -1
           symrel    1  0  0   0  1  0   0  0  1       1  0  0   0  1  0   0  0  1
                    -1  0  0   0 -1  0   0  0 -1      -1  0  0   0 -1  0   0  0 -1
                     0  1  0   1  0  0   0  0  1       0  1  0   1  0  0   0  0  1
                     0 -1  0  -1  0  0   0  0 -1       0 -1  0  -1  0  0   0  0 -1
                     0 -1  0   1 -1  0   0 -2  1       0 -1  0   1 -1  0   0 -2  1
                     0  1  0  -1  1  0   0  2 -1       0  1  0  -1  1  0   0  2 -1
                     1 -1  0   0 -1  0   0 -2  1       1 -1  0   0 -1  0   0 -2  1
                    -1  1  0   0  1  0   0  2 -1      -1  1  0   0  1  0   0  2 -1
                    -1  1  0  -1  0  0  -2  0  1      -1  1  0  -1  0  0  -2  0  1
                     1 -1  0   1  0  0   2  0 -1       1 -1  0   1  0  0   2  0 -1
                    -1  0  0  -1  1  0  -2  0  1      -1  0  0  -1  1  0  -2  0  1
                     1  0  0   1 -1  0   2  0 -1       1  0  0   1 -1  0   2  0 -1
            tnons    0.0000000  0.0000000  0.0000000     0.0000000  0.0000000  0.5000000
                     0.0000000  0.0000000  0.0000000     0.0000000  0.0000000  0.5000000
                     0.0000000  0.0000000  0.0000000     0.0000000  0.0000000  0.5000000
                     0.0000000  0.0000000  0.0000000     0.0000000  0.0000000  0.5000000
                     0.0000000  0.0000000  0.0000000     0.0000000  0.0000000  0.5000000
                     0.0000000  0.0000000  0.0000000     0.0000000  0.0000000  0.5000000
                     0.0000000  0.0000000  0.0000000     0.0000000  0.0000000  0.5000000
                     0.0000000  0.0000000  0.0000000     0.0000000  0.0000000  0.5000000
                     0.0000000  0.0000000  0.0000000     0.0000000  0.0000000  0.5000000
                     0.0000000  0.0000000  0.0000000     0.0000000  0.0000000  0.5000000
                     0.0000000  0.0000000  0.0000000     0.0000000  0.0000000  0.5000000
                     0.0000000  0.0000000  0.0000000     0.0000000  0.0000000  0.5000000
           toldfe    1.00000000E-08 Hartree
           tsmear    9.50044626E-04 Hartree
            typat    1  1  2  2
           useylm         1
              wtk      0.06250    0.12500    0.12500    0.12500    0.06250    0.12500
                       0.12500    0.06250    0.12500    0.06250
           xangst    0.0000000000E+00  0.0000000000E+00  0.0000000000E+00
                     2.0955417460E+00  2.0955417460E+00  0.0000000000E+00
                     2.0955417460E+00  2.0955417460E+00  2.0955417460E+00
                     4.1910834920E+00  4.1910834920E+00  2.0955417460E+00
            xcart    0.0000000000E+00  0.0000000000E+00  0.0000000000E+00
                     3.9600000000E+00  3.9600000000E+00  0.0000000000E+00
                     3.9600000000E+00  3.9600000000E+00  3.9600000000E+00
                     7.9200000000E+00  7.9200000000E+00  3.9600000000E+00
             xred    0.0000000000E+00  0.0000000000E+00  0.0000000000E+00
                     0.0000000000E+00  0.0000000000E+00  5.0000000000E-01
                     5.0000000000E-01  5.0000000000E-01  2.5000000000E-01
                     5.0000000000E-01  5.0000000000E-01  7.5000000000E-01
            znucl     28.00000    8.00000

 chkinp: Checking input parameters for consistency.

== DATASET  1 ==================================================================

 Real(R)+Recip(G) space primitive vectors, cartesian coordinates (Bohr,Bohr^-1):
 R(1)=  0.0000000  3.9600000  3.9600000  G(1)= -0.1262626  0.1262626  0.1262626
[...]
   0.00000   0.00000   0.00000   0.00000   0.00000   0.00000   0.00000   0.00000
   0.00000   0.00000   0.00000   0.00000   0.00000   0.00000
 kpt#  10, nband= 30, wtk=  0.06250, kpt= -0.1250 -0.1250  0.2500 (reduced coord)
  -0.40798  -0.39613   0.07086   0.10027   0.12693   0.13921   0.15638   0.16602
   0.22766   0.23666   0.25274   0.26189   0.26478   0.27915   0.28297   0.28917
   0.33057   0.35586   0.48030   0.51349   0.73745   0.79706   0.81821   0.87246
   0.89853   0.92199   0.99635   1.08567   1.13922   1.17410
      occupation numbers for kpt#  10
   2.00000   2.00000   2.00000   2.00000   2.00000   2.00000   2.00000   2.00000
   2.00000   2.00000   2.00000   2.00000   2.00000   2.00000   2.00000   2.00000
   0.00000   0.00000   0.00000   0.00000   0.00000   0.00000   0.00000   0.00000
   0.00000   0.00000   0.00000   0.00000   0.00000   0.00000
 Total charge density [el/Bohr^3]
,     Maximum=    1.6346E+00  at reduced coord.    0.0000    0.0000    0.5000
,Next maximum=    1.6346E+00  at reduced coord.    0.0000    0.0000    0.0000
,     Minimum=    1.1623E-02  at reduced coord.    0.2500    0.2500    0.1250
,Next minimum=    1.1623E-02  at reduced coord.    0.7500    0.7500    0.3750
 Spin up density      [el/Bohr^3]
,     Maximum=    9.6981E-01  at reduced coord.    0.0000    0.0000    0.0000
,Next maximum=    9.5066E-01  at reduced coord.    0.0000    0.0250    0.9875
,     Minimum=    5.6136E-03  at reduced coord.    0.2500    0.2500    0.1250
,Next minimum=    5.6136E-03  at reduced coord.    0.7500    0.7500    0.8750
 Spin down density    [el/Bohr^3]
,     Maximum=    9.6981E-01  at reduced coord.    0.0000    0.0000    0.5000
,Next maximum=    9.5066E-01  at reduced coord.    0.0000    0.9750    0.5125
,     Minimum=    5.6136E-03  at reduced coord.    0.7500    0.7500    0.3750
,Next minimum=    5.6136E-03  at reduced coord.    0.2500    0.2500    0.6250
 Magnetization (spin up - spin down) [el/Bohr^3]
,     Maximum=    3.0497E-01  at reduced coord.    0.0000    0.0000    0.0000
,Next maximum=    2.9892E-01  at reduced coord.    0.0000    0.0250    0.9875
,     Minimum=   -3.0497E-01  at reduced coord.    0.0000    0.0000    0.5000
,Next minimum=   -2.9892E-01  at reduced coord.    0.0000    0.0000    0.4875
 Relative magnetization (=zeta, between -1 and 1)
,     Maximum=    3.9648E-01  at reduced coord.    0.1750    0.8250    0.9125
,Next maximum=    3.9648E-01  at reduced coord.    0.8250    0.1750    0.9125
,     Minimum=   -3.9648E-01  at reduced coord.    0.1750    0.1750    0.4125
,Next minimum=   -3.9648E-01  at reduced coord.    0.8250    0.1750    0.4125

 Components of total free energy (in Hartree) :

    Kinetic energy  =  2.20307373336952E+01
    Hartree energy  =  2.06125379102839E+01
    XC energy       = -1.92435111709773E+01
    Ewald energy    = -9.52410591238850E+01
    PspCore energy  =  4.34689993775436E+00
    Loc. psp. energy= -8.08378829945252E+01
    Spherical terms =  3.65291484194494E+01
    >>>>> Internal E= -1.11803129688205E+02

    -kT*entropy     = -7.38814241231042E-17
    >>>>>>>>> Etotal= -1.11803129688205E+02

 "Double-counting" decomposition of free energy:
    Band energy     =  4.00389166958303E+00
    Ewald energy    = -9.52410591238850E+01
    PspCore energy  =  4.34689993775436E+00
    Dble-C XC-energy= -1.51624108935984E+01
    Spherical terms = -9.75124226403805E+00
    >>>>> Internal E= -1.11803920674184E+02

    -kT*entropy     = -7.38814241231042E-17
    >>>> Etotal (DC)= -1.11803920674184E+02

  >Total energy in eV           = -3.04231787869510E+03
  >Total DC energy in eV        = -3.04233940251821E+03

 Cartesian components of stress tensor (hartree/bohr^3)
  sigma(1 1)=  1.43138351E-05  sigma(3 2)= -7.29899328E-06
  sigma(2 2)=  1.43138351E-05  sigma(3 1)= -7.29899328E-06
  sigma(3 3)=  1.43138351E-05  sigma(2 1)=  7.29899328E-06

-Cartesian components of stress tensor (GPa)         [Pressure= -4.2113E-01 GPa]
- sigma(1 1)=  4.21127496E-01  sigma(3 2)= -2.14743760E-01
- sigma(2 2)=  4.21127496E-01  sigma(3 1)= -2.14743760E-01
- sigma(3 3)=  4.21127496E-01  sigma(2 1)=  2.14743760E-01

== END DATASET(S) ==============================================================

 -outvars: echo values of variables after computation  --------
            acell    7.9200000000E+00  7.9200000000E+00  7.9200000000E+00 Bohr
              amu    5.86900000E+01  1.59994000E+01
      chksymbreak         0
             ecut    3.00000000E+01 Hartree
           etotal   -1.1180312969E+02
            fcart   -0.0000000000E+00 -0.0000000000E+00 -0.0000000000E+00
                    -0.0000000000E+00 -0.0000000000E+00 -0.0000000000E+00
                    -0.0000000000E+00 -0.0000000000E+00 -0.0000000000E+00
                    -0.0000000000E+00 -0.0000000000E+00 -0.0000000000E+00
             iscf         7
              ixc        11
              kpt    1.25000000E-01  1.25000000E-01  2.50000000E-01
                     3.75000000E-01  1.25000000E-01  2.50000000E-01
                    -3.75000000E-01  1.25000000E-01  2.50000000E-01
                    -1.25000000E-01  1.25000000E-01  2.50000000E-01
                     3.75000000E-01  3.75000000E-01  2.50000000E-01
                    -3.75000000E-01  3.75000000E-01  2.50000000E-01
                    -1.25000000E-01  3.75000000E-01  2.50000000E-01
                    -3.75000000E-01 -3.75000000E-01  2.50000000E-01
                    -1.25000000E-01 -3.75000000E-01  2.50000000E-01
                    -1.25000000E-01 -1.25000000E-01  2.50000000E-01
          kptrlen    2.24011428E+01
         kptrlatt    4  0  0   0  4  0   0  0  2
P           mkmem         1
            natom         4
            nband        30
            ngfft        30      30      60
          ngfftdg        40      40      80
             nkpt        10
           nspden         2
            nstep       120
             nsym        24
           ntypat         2
              occ    2.000000  2.000000  2.000000  2.000000  2.000000  2.000000
                     2.000000  2.000000  2.000000  2.000000  2.000000  2.000000
                     2.000000  2.000000  2.000000  2.000000  0.000000  0.000000
                     0.000000  0.000000  0.000000  0.000000  0.000000  0.000000
                     0.000000  0.000000  0.000000  0.000000  0.000000  0.000000
                     2.000000  2.000000  2.000000  2.000000  2.000000  2.000000
                     2.000000  2.000000  2.000000  2.000000  2.000000  2.000000
                     2.000000  2.000000  2.000000  2.000000  0.000000  0.000000
                     0.000000  0.000000  0.000000  0.000000  0.000000  0.000000
                     0.000000  0.000000  0.000000  0.000000  0.000000  0.000000
                     2.000000  2.000000  2.000000  2.000000  2.000000  2.000000
                     2.000000  2.000000  2.000000  2.000000  2.000000  2.000000
                     2.000000  2.000000  2.000000  2.000000  0.000000  0.000000
                     0.000000  0.000000  0.000000  0.000000  0.000000  0.000000
                     0.000000  0.000000  0.000000  0.000000  0.000000  0.000000
                     2.000000  2.000000  2.000000  2.000000  2.000000  2.000000
                     2.000000  2.000000  2.000000  2.000000  2.000000  2.000000
                     2.000000  2.000000  2.000000  2.000000  0.000000  0.000000
                     0.000000  0.000000  0.000000  0.000000  0.000000  0.000000
                     0.000000  0.000000  0.000000  0.000000  0.000000  0.000000
                     2.000000  2.000000  2.000000  2.000000  2.000000  2.000000
                     2.000000  2.000000  2.000000  2.000000  2.000000  2.000000
                     2.000000  2.000000  2.000000  2.000000  0.000000  0.000000
                     0.000000  0.000000  0.000000  0.000000  0.000000  0.000000
                     0.000000  0.000000  0.000000  0.000000  0.000000  0.000000
                     2.000000  2.000000  2.000000  2.000000  2.000000  2.000000
                     2.000000  2.000000  2.000000  2.000000  2.000000  2.000000
                     2.000000  2.000000  2.000000  2.000000  0.000000  0.000000
                     0.000000  0.000000  0.000000  0.000000  0.000000  0.000000
                     0.000000  0.000000  0.000000  0.000000  0.000000  0.000000
                     2.000000  2.000000  2.000000  2.000000  2.000000  2.000000
                     2.000000  2.000000  2.000000  2.000000  2.000000  2.000000
                     2.000000  2.000000  2.000000  2.000000  0.000000  0.000000
                     0.000000  0.000000  0.000000  0.000000  0.000000  0.000000
                     0.000000  0.000000  0.000000  0.000000  0.000000  0.000000
                     2.000000  2.000000  2.000000  2.000000  2.000000  2.000000
                     2.000000  2.000000  2.000000  2.000000  2.000000  2.000000
                     2.000000  2.000000  2.000000  2.000000  0.000000  0.000000
                     0.000000  0.000000  0.000000  0.000000  0.000000  0.000000
                     0.000000  0.000000  0.000000  0.000000  0.000000  0.000000
                     2.000000  2.000000  2.000000  2.000000  2.000000  2.000000
                     2.000000  2.000000  2.000000  2.000000  2.000000  2.000000
                     2.000000  2.000000  2.000000  2.000000  0.000000  0.000000
                     0.000000  0.000000  0.000000  0.000000  0.000000  0.000000
                     0.000000  0.000000  0.000000  0.000000  0.000000  0.000000
                     2.000000  2.000000  2.000000  2.000000  2.000000  2.000000
                     2.000000  2.000000  2.000000  2.000000  2.000000  2.000000
                     2.000000  2.000000  2.000000  2.000000  0.000000  0.000000
                     0.000000  0.000000  0.000000  0.000000  0.000000  0.000000
                     0.000000  0.000000  0.000000  0.000000  0.000000  0.000000
           occopt         7
        pawecutdg    6.00000000E+01 Hartree
        pawprtvol         3
        prtdensph         1
           ratsph    2.31080032E+00  1.21105161E+00 Bohr
            rprim    0.0000000000E+00  5.0000000000E-01  5.0000000000E-01
                     5.0000000000E-01  0.0000000000E+00  5.0000000000E-01
                     1.0000000000E+00  1.0000000000E+00  0.0000000000E+00
           shiftk    5.00000000E-01  5.00000000E-01  5.00000000E-01
          spgroup       166
           spinat    0.0000000000E+00  0.0000000000E+00  1.0000000000E+00
                     0.0000000000E+00  0.0000000000E+00 -1.0000000000E+00
                     0.0000000000E+00  0.0000000000E+00  0.0000000000E+00
                     0.0000000000E+00  0.0000000000E+00  0.0000000000E+00
           strten    1.4313835069E-05  1.4313835069E-05  1.4313835069E-05
                    -7.2989932808E-06 -7.2989932808E-06  7.2989932809E-06
           symafm    1 -1  1  -1  1 -1   1 -1  1      -1  1 -1   1 -1  1  -1  1 -1
                     1 -1  1  -1  1 -1
           symrel    1  0  0   0  1  0   0  0  1       1  0  0   0  1  0   0  0  1
                    -1  0  0   0 -1  0   0  0 -1      -1  0  0   0 -1  0   0  0 -1
                     0  1  0   1  0  0   0  0  1       0  1  0   1  0  0   0  0  1
                     0 -1  0  -1  0  0   0  0 -1       0 -1  0  -1  0  0   0  0 -1
                     0 -1  0   1 -1  0   0 -2  1       0 -1  0   1 -1  0   0 -2  1
                     0  1  0  -1  1  0   0  2 -1       0  1  0  -1  1  0   0  2 -1
                     1 -1  0   0 -1  0   0 -2  1       1 -1  0   0 -1  0   0 -2  1
                    -1  1  0   0  1  0   0  2 -1      -1  1  0   0  1  0   0  2 -1
                    -1  1  0  -1  0  0  -2  0  1      -1  1  0  -1  0  0  -2  0  1
                     1 -1  0   1  0  0   2  0 -1       1 -1  0   1  0  0   2  0 -1
                    -1  0  0  -1  1  0  -2  0  1      -1  0  0  -1  1  0  -2  0  1
                     1  0  0   1 -1  0   2  0 -1       1  0  0   1 -1  0   2  0 -1
            tnons    0.0000000  0.0000000  0.0000000     0.0000000  0.0000000  0.5000000
                     0.0000000  0.0000000  0.0000000     0.0000000  0.0000000  0.5000000
                     0.0000000  0.0000000  0.0000000     0.0000000  0.0000000  0.5000000
                     0.0000000  0.0000000  0.0000000     0.0000000  0.0000000  0.5000000
                     0.0000000  0.0000000  0.0000000     0.0000000  0.0000000  0.5000000
                     0.0000000  0.0000000  0.0000000     0.0000000  0.0000000  0.5000000
                     0.0000000  0.0000000  0.0000000     0.0000000  0.0000000  0.5000000
                     0.0000000  0.0000000  0.0000000     0.0000000  0.0000000  0.5000000
                     0.0000000  0.0000000  0.0000000     0.0000000  0.0000000  0.5000000
                     0.0000000  0.0000000  0.0000000     0.0000000  0.0000000  0.5000000
                     0.0000000  0.0000000  0.0000000     0.0000000  0.0000000  0.5000000
                     0.0000000  0.0000000  0.0000000     0.0000000  0.0000000  0.5000000
           toldfe    1.00000000E-08 Hartree
           tsmear    9.50044626E-04 Hartree
            typat    1  1  2  2
           useylm         1
              wtk      0.06250    0.12500    0.12500    0.12500    0.06250    0.12500
                       0.12500    0.06250    0.12500    0.06250
           xangst    0.0000000000E+00  0.0000000000E+00  0.0000000000E+00
                     2.0955417460E+00  2.0955417460E+00  0.0000000000E+00
                     2.0955417460E+00  2.0955417460E+00  2.0955417460E+00
                     4.1910834920E+00  4.1910834920E+00  2.0955417460E+00
            xcart    0.0000000000E+00  0.0000000000E+00  0.0000000000E+00
                     3.9600000000E+00  3.9600000000E+00  0.0000000000E+00
                     3.9600000000E+00  3.9600000000E+00  3.9600000000E+00
                     7.9200000000E+00  7.9200000000E+00  3.9600000000E+00
             xred    0.0000000000E+00  0.0000000000E+00  0.0000000000E+00
                     0.0000000000E+00  0.0000000000E+00  5.0000000000E-01
                     5.0000000000E-01  5.0000000000E-01  2.5000000000E-01
                     5.0000000000E-01  5.0000000000E-01  7.5000000000E-01
            znucl     28.00000    8.00000

- Timing analysis has been suppressed with timopt=0

 Suggested references for the acknowledgment of ABINIT usage.

 [1] Implementation of the Projector Augmented-Wave Method in the ABINIT code.
 M. Torrent, F. Jollet, F. Bottin, G. Zerah, and X. Gonze Comput. Mat. Science 42, 337, (2008).
 Comment : PAW calculations. Strong suggestiong to cite this paper.

 [2] ABINIT : First-principles approach of materials and nanosystem properties.
 X. Gonze, B. Amadon, P.-M. Anglade, J.-M. Beuken, F. Bottin, P. Boulanger, F. Bruneval,
 D. Caliste, R. Caracas, M. Cote, T. Deutsch, L. Genovese, Ph. Ghosez, M. Giantomassi
 S. Goedecker, D.R. Hamann, P. Hermet, F. Jollet, G. Jomard, S. Leroux, M. Mancini, S. Mazevet,
 M.J.T. Oliveira, G. Onida, Y. Pouillon, T. Rangel, G.-M. Rignanese, D. Sangalli, R. Shaltaf,
 M. Torrent, M.J. Verstraete, G. Zerah, J.W. Zwanziger
 Computer Phys. Comm. 180, 2582-2615 (2009).
 Comment : the third generic paper describing the ABINIT project.
 Note that a version of this paper, that is not formatted for Computer Phys. Comm.
 The licence allows the authors to put it on the Web.

 [3] A brief introduction to the ABINIT software package.
 X. Gonze, G.-M. Rignanese, M. Verstraete, J.-M. Beuken, Y. Pouillon, R. Caracas, F. Jollet,
 M. Torrent, G. Zerah, M. Mikami, Ph. Ghosez, M. Veithen, J.-Y. Raty, V. Olevano, F. Bruneval,
 L. Reining, R. Godby, G. Onida, D.R. Hamann, and D.C. Allan.
 Z. Kristallogr. 220, 558-562 (2005).
 Comment : the second generic paper describing the ABINIT project. Note that this paper
 should be cited especially if you are using the GW part of ABINIT, as several authors
 of this part are not in the list of authors of the first or third paper.
 Note that it should not redistributed (Copyright by Oldenburg Wissenshaftverlag,
 the licence allows the authors to put it on the Web).

 And optionally :

 [4] First-principles computation of material properties : the ABINIT software project.
 X. Gonze, J.-M. Beuken, R. Caracas, F. Detraux, M. Fuchs, G.-M. Rignanese, L. Sindic,
 M. Verstraete, G. Zerah, F. Jollet, M. Torrent, A. Roy, M. Mikami, Ph. Ghosez, J.-Y. Raty, D.C. Allan.
 Comment : the original paper describing the ABINIT project.

 [5] Fast radix 2, 3, 4 and 5 kernels for Fast Fourier Transformations
 on computers with overlapping multiply-add instructions.
 S. Goedecker, SIAM J. on Scientific Computing 18, 1605 (1997).
-

 Calculation completed.
.Delivered    1 WARNINGs and   0 COMMENTs to log file.