.Version 7.6.3 of ABINIT

 ABINIT is a project of the Universite Catholique de Louvain,
 Corning Inc. and other collaborators, see ~abinit/doc/developers/contributors.txt .
 Please read ~abinit/doc/users/acknowledgments.html for suggested
 acknowledgments of the ABINIT effort.

.Starting date : Mon 28 Apr 2014.
- ( at 10h29 )

 === Build Information ===
  Version       : 7.6.3
  Build target  : x86_64_linux_intel12.1
  Build date    : 20140428

 === Optimizations ===
  Debug level        : basic
  Optimization level : standard
  Architecture       : intel_xeon

 === Multicore ===
  Parallel build : yes
  Parallel I/O   : yes
  Time tracing   : no
  openMP support : no
  GPU support    : no

 === Connectors / Fallbacks ===
  Connectors on : yes
  Fallbacks on  : yes
  DFT flavor    : none
  FFT flavor    : fftw3-mkl
  LINALG flavor : mkl
  MATH flavor   : none
  TIMER flavor  : abinit
  TRIO flavor   : none

 === Experimental features ===
  Bindings            : no
  Exports             : no
  GW double-precision : yes

 Default optimizations:
   -O2 -xHost

 CPP options activated during the build:

                  CC_INTEL                   CXX_GNU                  FC_INTEL

 HAVE_FC_ALLOCATABLE_DT...  HAVE_FC_COMMAND_ARGUMENT        HAVE_FC_CONTIGUOUS

           HAVE_FC_CPUTIME              HAVE_FC_EXIT             HAVE_FC_GAMMA

             HAVE_FC_IOMSG     HAVE_FC_ISO_C_BINDING              HAVE_FC_NULL

         HAVE_FC_STREAM_IO                  HAVE_FFT        HAVE_FFT_FFTW3_MKL

              HAVE_FFT_MPI           HAVE_FFT_SERIAL               HAVE_GW_DPC

        HAVE_LIBPAW_ABINIT               HAVE_LINALG         HAVE_LINALG_AXPBY

        HAVE_LINALG_GEMM3M  HAVE_LINALG_MKL_IMATCOPY   HAVE_LINALG_MKL_OMATADD

  HAVE_LINALG_MKL_OMATCOPY        HAVE_LINALG_SERIAL                  HAVE_MPI

                 HAVE_MPI2               HAVE_MPI_IO HAVE_MPI_TYPE_CREATE_S...

                HAVE_NUMPY             HAVE_OS_LINUX                HAVE_TIMER

         HAVE_TIMER_ABINIT            HAVE_TIMER_MPI         HAVE_TIMER_SERIAL

              USE_MACROAVE

- input  file    -> /p/lscratche/damewood/2014_LiMnP_Phonon/work_6/task_0/run.abi
- output file    -> /p/lscratche/damewood/2014_LiMnP_Phonon/work_6/task_0/run.abo
- root for input  files -> /p/lscratche/damewood/2014_LiMnP_Phonon/work_6/task_0/indata/in
- root for output files -> /p/lscratche/damewood/2014_LiMnP_Phonon/work_6/task_0/outdata/out

-instrng :    38 lines of input have been read from file /p/lscratche/damewood/2014_LiMnP_Phonon/work_6/task_0/run.abi

 iofn2 : Please give name of formatted atomic psp file
 iofn2 : for atom type   1 , psp file is /g/g14/damewood/software/abinit/abinit-pseudopotentials-2/GGA_FHI/03-Li.GGA.fhi

 iofn2 : Please give name of formatted atomic psp file
 iofn2 : for atom type   2 , psp file is /g/g14/damewood/software/abinit/abinit-pseudopotentials-2/GGA_FHI/25-Mn.GGA.fhi

 iofn2 : Please give name of formatted atomic psp file
 iofn2 : for atom type   3 , psp file is /g/g14/damewood/software/abinit/abinit-pseudopotentials-2/GGA_FHI/15-P.GGA.fhi
  read the values zionpsp=  1.0 , pspcod=   6 , lmax=   3
  read the values zionpsp=  7.0 , pspcod=   6 , lmax=   3
  read the values zionpsp=  5.0 , pspcod=   6 , lmax=   3

 inpspheads : deduce mpsang  =   4, n1xccc  =2501.

 invars1m : enter jdtset=0
 invars1 : treat image number     1

 symlatt : the Bravais lattice is cF (face-centered cubic)
  xred   is defined in input file
 ingeo : takes atomic coordinates from input array xred

 symlatt : the Bravais lattice is cF (face-centered cubic)

 symlatt : the Bravais lattice is cF (face-centered cubic)
 symspgr : spgroup= 216  F-4 3 m   (=Td^2)
 getkgrid : length of smallest supercell vector (bohr)=    3.640186E+01
       Simple Lattice Grid
 symkpt : found identity, with number  1
 getkgrid : length of smallest supercell vector (bohr)=    3.640186E+01
       Simple Lattice Grid
 symkpt : found identity, with number  1
  dtset%nelect=   13.0000000000000
 chkneu : initialized the occupation numbers for occopt=    7
    spin up   values :
  1.00  1.00  1.00  1.00  1.00  1.00  1.00  0.00  0.00  0.00  0.00  0.00
    spin down values :
  1.00  1.00  1.00  1.00  1.00  1.00  0.00  0.00  0.00  0.00  0.00  0.00

 Computing all possible proc distrib for this input with nproc less than 8
      nppert|       npkpt|       nproc|      weight|
   1 ->    1|   3 ->    8|   2 ->    8|   1 ->    8|
           1|           8|           8|       7.77 |
           1|           6|           6|       4.56 |
           1|           4|           4|       3.91 |
npfft, npband, npspinor and npkpt:     1    1    1    8
mpi_setup: mkmem  undefined in the input file.Use default mkmem  = nkpt
 mpi_setup: With nkpt_me=2 and mkmem  = 8, ground state wf handled in core.
mpi_setup: mkqmem undefined in the input file.Use default mkqmem = nkpt
 mpi_setup: With nkpt_me=2 and mkqmem = 8, ground state wf handled in core.
mpi_setup: mk1mem undefined in the input file.Use default mk1mem = nkpt
 mpi_setup: With nkpt_me=2 and mk1mem = 8, ground state wf handled in core.
 For input ecut=  4.000000E+01 best grid ngfft=      54      54      54
       max ecut=  4.346783E+01

 ==== FFT mesh ====
  FFT mesh divisions ........................    54   54   54
  Augmented FFT divisions ...................    55   55   54
  FFT algorithm .............................   112
  FFT cache size ............................    16
 getmpw: optimal value of mpw=    6476
 getmpw: optimal value of mpw=    6476

 Symmetries : space group F-4 3 m (#216); Bravais cF (face-center cubic)

 getdim_nloc : deduce lmnmax  =  16, lnmax  =   4,
                      lmnmaxso=  16, lnmaxso=   4.
 symq3 : found symmetry   1 preserves q
 symq3 : found symmetry    4 + TimeReversal preserves q
 symq3 : found symmetry  13 preserves q
 symq3 : found symmetry   16 + TimeReversal preserves q
   intxc =         0    iscf =         7 xclevel =         2  lmnmax =         4
   lnmax =         4   mband =        12  mffmem =         1   mgfft =        54
P  mkmem =         2  mkqmem =         2  mk1mem =         2 mpssoang=         4
     mpw =      6476  mqgrid =      3001   natom =         3    nfft =    157464
    nkpt =         8  nloalg =         4  nspden =         2 nspinor =         1
  nsppol =         2    nsym =        24  n1xccc =      2501  ntypat =         3
  occopt =         7
  Rough estimation (10% accuracy) of disk space for files :

 The job will continue.
------------- Echo of variables that govern the present computation ------------
-
- outvars: echo of selected default values
-   accesswff0 =  0 , fftalg0 =112 , wfoptalg0 =  0
-
- outvars: echo of global parameters not present in the input file
-  max_nthreads =    0
-
 -outvars: echo values of preprocessed input variables --------
        accesswff           1
            acell      1.0000000000E+00  1.0000000000E+00  1.0000000000E+00 Bohr
              amu      6.94100000E+00  5.49380500E+01  3.09737620E+01
        autoparal           1
             ecut      4.00000000E+01 Hartree
           irdwfk           1
           istwfk        1    0    1    0    0    0    1    0
              ixc          11
              kpt      0.00000000E+00  0.00000000E+00  0.00000000E+00
                       2.50000000E-01  0.00000000E+00  0.00000000E+00
                       5.00000000E-01  0.00000000E+00  0.00000000E+00
                       2.50000000E-01  2.50000000E-01  0.00000000E+00
                       5.00000000E-01  2.50000000E-01  0.00000000E+00
                      -2.50000000E-01  2.50000000E-01  0.00000000E+00
                       5.00000000E-01  5.00000000E-01  0.00000000E+00
                      -2.50000000E-01  5.00000000E-01  2.50000000E-01
         kptrlatt        4    0    0      0    4    0      0    0    4
          kptrlen      3.64018571E+01
P           mkmem           2
P          mkqmem           2
P          mk1mem           2
            natom           3
            nband          12
           nbdbuf           2
            ngfft          54      54      54
             nkpt           8
             nqpt           1
           nspden           2
           nsppol           2
            nstep         201
             nsym          24
           ntypat           3
              occ      1.000000  1.000000  1.000000  1.000000  1.000000  1.000000
                       1.000000  0.000000  0.000000  0.000000  0.000000  0.000000
                       1.000000  1.000000  1.000000  1.000000  1.000000  1.000000
                       1.000000  0.000000  0.000000  0.000000  0.000000  0.000000
                       1.000000  1.000000  1.000000  1.000000  1.000000  1.000000
                       1.000000  0.000000  0.000000  0.000000  0.000000  0.000000
                       1.000000  1.000000  1.000000  1.000000  1.000000  1.000000
                       1.000000  0.000000  0.000000  0.000000  0.000000  0.000000
                       1.000000  1.000000  1.000000  1.000000  1.000000  1.000000
                       1.000000  0.000000  0.000000  0.000000  0.000000  0.000000
                       1.000000  1.000000  1.000000  1.000000  1.000000  1.000000
                       1.000000  0.000000  0.000000  0.000000  0.000000  0.000000
                       1.000000  1.000000  1.000000  1.000000  1.000000  1.000000
                       1.000000  0.000000  0.000000  0.000000  0.000000  0.000000
                       1.000000  1.000000  1.000000  1.000000  1.000000  1.000000
                       1.000000  0.000000  0.000000  0.000000  0.000000  0.000000
                       1.000000  1.000000  1.000000  1.000000  1.000000  1.000000
                       0.000000  0.000000  0.000000  0.000000  0.000000  0.000000
                       1.000000  1.000000  1.000000  1.000000  1.000000  1.000000
                       0.000000  0.000000  0.000000  0.000000  0.000000  0.000000
                       1.000000  1.000000  1.000000  1.000000  1.000000  1.000000
                       0.000000  0.000000  0.000000  0.000000  0.000000  0.000000
                       1.000000  1.000000  1.000000  1.000000  1.000000  1.000000
                       0.000000  0.000000  0.000000  0.000000  0.000000  0.000000
                       1.000000  1.000000  1.000000  1.000000  1.000000  1.000000
                       0.000000  0.000000  0.000000  0.000000  0.000000  0.000000
                       1.000000  1.000000  1.000000  1.000000  1.000000  1.000000
                       0.000000  0.000000  0.000000  0.000000  0.000000  0.000000
                       1.000000  1.000000  1.000000  1.000000  1.000000  1.000000
                       0.000000  0.000000  0.000000  0.000000  0.000000  0.000000
                       1.000000  1.000000  1.000000  1.000000  1.000000  1.000000
                       0.000000  0.000000  0.000000  0.000000  0.000000  0.000000
           occopt           7
        optdriver           1
              qpt     -2.50000000E-01  2.50000000E-01  0.00000000E+00
            rfdir           1       0       0
           rfphon           1
[...]
  pspdat  21003 pspcod    6 zion   5.0  |  pspdat  21003 pspcod    6 zion   5.0
  xred:                                 |  xred:
     0.0000000   0.0000000   0.0000000  |     0.0000000   0.0000000   0.0000000
     0.5000000   0.5000000   0.5000000  |     0.5000000   0.5000000   0.5000000
     0.2500000   0.2500000   0.2500000  |     0.2500000   0.2500000   0.2500000

--- !WARNING
message: |
    Restart of self-consistent calculation need translated wavefunctions.
src_file: Subroutine Unknown
src_line: 0
...

  Indeed, critical differences between current calculation and
  restart file have been detected in:
        * the number, position, or weight of k-points
-inwffil : will read wavefunctions from disk file /p/lscratche/damewood/2014_LiMnP_Phonon/work_6/task_0/indata/in_WFK
 initwf : disk file gives npw=  6420 nband=    12 for kpt number=    2
 initwf :    12 bands have been initialized from disk
 initwf : disk file gives npw=  6447 nband=    12 for kpt number=    6
 initwf :    12 bands have been initialized from disk
 newkpt: spin channel isppol2 =     1
- newkpt: read input wf with ikpt,npw=   6    6447, make ikpt,npw=   1    6447
- newkpt: read input wf with ikpt,npw=   2    6420, make ikpt,npw=   2    6420
 newkpt: spin channel isppol2 =     2

 loper3 : eigenq array
 loper3 : total number of electrons, from k and k+q
  fully or partially occupied states are    1.300000E+01 and    1.300000E+01.
 Initialisation of the first-order wave-functions :
  ireadwf=   0
 newkpt: spin channel isppol2 =     1
 wfconv :    12 bands set=0 with npw=   6447, for ikpt=   1
 wfconv :    12 bands set=0 with npw=   6420, for ikpt=   2
 newkpt: spin channel isppol2 =     2

 getcut: wavevector=  0.0000  0.0000  0.0000  ngfft=  54  54  54
         ecut(hartree)=     40.000   => boxcut(ratio)=   2.08489

 ITER STEP NUMBER     1
-ETOT  1   5.1332492063709     -2.285E-01 6.650E-02 2.564E+05
 quit sum:           0
 quit sum:           0
 quit sum:           0
 quit sum:           0
 quit sum:           0
 quit sum:           0
 quit sum:           0
 quit sum:           0

Simple mixing update:
  residual square of the potential :   11114.9243941132

 ITER STEP NUMBER     2
 ETOT  2   1.1187378729094     -4.015E+00 1.043E-02 3.009E+04
 quit sum:           0
 quit sum:           0
 quit sum:           0
 quit sum:           0
 quit sum:           0
 quit sum:           0
 quit sum:           0
 quit sum:           0

 Pulay update with  1 previous iterations:
 mixing of old trial potential : alpha(m:m-4)=  0.864      0.136

[...]

 ITER STEP NUMBER    49
 ETOT 49  0.69967139677145     -1.865E-14 4.342E-17 5.175E-11
 quit sum:           0
 quit sum:           0
 quit sum:           0
 quit sum:           0
 quit sum:           0
 quit sum:           0
 quit sum:           0
 quit sum:           0

 Pulay update with  7 previous iterations:
 mixing of old trial potential : alpha(m:m-4)= -0.552E-01   1.52     -0.859     -0.633      0.942

 ITER STEP NUMBER    50
 ETOT 50  0.69967139677146      1.421E-14 8.149E-18 7.382E-11
 choice2: res2/tolvrs =   9.666527591608606E-013  1.000000000000000E-012
 choice2: res2/tolvrs =   9.666527591608606E-013  1.000000000000000E-012
 choice2: res2/tolvrs =   9.666527591608606E-013  1.000000000000000E-012
 choice2: res2/tolvrs =   9.666527591608606E-013  1.000000000000000E-012
 choice2: res2/tolvrs =   9.666527591608606E-013  1.000000000000000E-012
 choice2: res2/tolvrs =   9.666527591608606E-013  1.000000000000000E-012
 choice2: res2/tolvrs =   9.666527591608606E-013  1.000000000000000E-012
 quit sum:           7
 quit sum:           7
 quit sum:           7
 quit sum:           7
 quit sum:           7
 quit sum:           7
 quit sum:           7
 quit sum:           7
 choice3: res2/tolvrs =   9.666527591608606E-013  1.000000000000000E-012
 choice3: res2/tolvrs =   7.382415892658378E-011  1.000000000000000E-012

--- !ScfConvergenceWarning
message: |

     scprqt:  WARNING -
      nstep=  201 was not enough SCF cycles to converge;
...

 scprqt:  WARNING -
  nstep=  201 was not enough SCF cycles to converge;
  potential residual=  7.382E-11 exceeds tolvrs=  1.000E-12

 ioarr: writing density data
ioarr: file name is /p/lscratche/damewood/2014_LiMnP_Phonon/work_6/task_0/outdata/out_DEN1
ioarr: data written to disk file /p/lscratche/damewood/2014_LiMnP_Phonon/work_6/task_0/outdata/out_DEN1

 ----iterations are completed or convergence reached----

 outwf: write wavefunction to file /p/lscratche/damewood/2014_LiMnP_Phonon/work_6/task_0/outdata/out_1WF1, with accesswff 1
 choice3: res2/tolvrs =   9.666527591608606E-013  1.000000000000000E-012
 choice3: res2/tolvrs =   9.666527591608606E-013  1.000000000000000E-012
 choice3: res2/tolvrs =   9.666527591608606E-013  1.000000000000000E-012
 choice3: res2/tolvrs =   9.666527591608606E-013  1.000000000000000E-012
 choice3: res2/tolvrs =   9.666527591608606E-013  1.000000000000000E-012
 choice3: res2/tolvrs =   9.666527591608606E-013  1.000000000000000E-012

--- !COMMENT
message: |
src_file: Subroutine Unknown
src_line: 0
...

 Thirteen components of 2nd-order total energy (hartree) are
 1,2,3: 0th-order hamiltonian combined with 1st-order wavefunctions
     kin0=   4.50888412E+00 eigvalue=   3.09377104E-01  local=  -1.80070704E+00
 4,5,6: 1st-order hamiltonian combined with 1st and 0th-order wfs
 loc psp =  -2.83224945E+00  Hartree=   8.15967651E-01     xc=  -2.70337899E-01
 note that "loc psp" includes a xc core correction that could be resolved
 7,8,9: eventually, occupation + non-local contributions
    edocc=   3.47315265E-01     enl0=   7.51603921E-01   enl1=  -6.49195680E+00
 1-9 gives the relaxation energy (to be shifted if some occ is /=2.0)
   erelax=  -4.66210313E+00
 10,11,12 Non-relaxation  contributions : frozen-wavefunctions and Ewald
 fr.local=  -7.61152634E+00 fr.nonlo=   4.86137942E+00  Ewald=   8.41020576E+00
 prtene3 : non-relax=    5.660059E+00
 13,14 Frozen wf xc core corrections (1) and (2)
 frxc 1  =  -4.79010691E+00  frxc 2 =   4.49182260E+00
 Resulting in :
 2DEtotal=    0.6996713968E+00 Ha. Also 2DEtotal=    0.190390269534E+02 eV
    (2DErelax=   -4.6621031288E+00 Ha. 2DEnonrelax=    5.3617745256E+00 Ha)
    (  non-var. 2DEtotal :    6.9967140012E-01 Ha)

 ---- first-order wavefunction calculations are completed ----

 ==> Compute Derivative Database <==
  dyout3 : exit

 phonon wavelength (reduced coordinates) , norm, and energies in hartree
 -0.25 0.25 0.00 1.00
  0.000000000E+00  0.000000000E+00  0.000000000E+00  0.000000000E+00  0.000000000E+00
  0.000000000E+00  0.000000000E+00  0.000000000E+00  0.000000000E+00
 Zero Point Motion energy (sum of freqs/2)=  0.000000000E+00
 chkph3 : WARNING -
  The dynamical matrix was incomplete : phonon frequencies may be wrong ...

== END DATASET(S) ==============================================================

 -outvars: echo values of variables after computation  --------
        accesswff           1
            acell      1.0000000000E+00  1.0000000000E+00  1.0000000000E+00 Bohr
              amu      6.94100000E+00  5.49380500E+01  3.09737620E+01
        autoparal           1
             ecut      4.00000000E+01 Hartree
           etotal      6.9967139677E-01
            fcart      0.0000000000E+00  0.0000000000E+00  0.0000000000E+00
                       0.0000000000E+00  0.0000000000E+00  0.0000000000E+00
                       0.0000000000E+00  0.0000000000E+00  0.0000000000E+00
           irdwfk           1
           istwfk        1    0    1    0    0    0    1    0
              ixc          11
              kpt      0.00000000E+00  0.00000000E+00  0.00000000E+00
                       2.50000000E-01  0.00000000E+00  0.00000000E+00
                       5.00000000E-01  0.00000000E+00  0.00000000E+00
                       2.50000000E-01  2.50000000E-01  0.00000000E+00
                       5.00000000E-01  2.50000000E-01  0.00000000E+00
                      -2.50000000E-01  2.50000000E-01  0.00000000E+00
                       5.00000000E-01  5.00000000E-01  0.00000000E+00
                      -2.50000000E-01  5.00000000E-01  2.50000000E-01
         kptrlatt        4    0    0      0    4    0      0    0    4
          kptrlen      3.64018571E+01
P           mkmem           2
P          mkqmem           2
P          mk1mem           2
            natom           3
            nband          12
           nbdbuf           2
            ngfft          54      54      54
             nkpt           8
             nqpt           1
           nspden           2
           nsppol           2
            nstep         201
             nsym          24
           ntypat           3
              occ      1.000000  1.000000  1.000000  1.000000  1.000000  1.000000
                       1.000000  0.666726  0.666726  0.666547  0.000000  0.000000
                       1.000000  1.000000  1.000000  1.000000  1.000000  1.000000
                       1.000000  1.000000  1.000000  0.000000  0.000000  0.000000
                       1.000000  1.000000  1.000000  1.000000  1.000000  1.000000
                       1.000000  1.000000  1.000000  0.000000  0.000000  0.000000
                       1.000000  1.000000  1.000000  1.000000  1.000000  1.000000
                       1.000000  1.000000  1.000000  0.000000  0.000000  0.000000
                       1.000000  1.000000  1.000000  1.000000  1.000000  1.000000
                       1.000000  1.000000  1.000000  0.000000  0.000000  0.000000
                       1.000000  1.000000  1.000000  1.000000  1.000000  1.000000
                       1.000000  1.000000  1.000000  0.000000  0.000000  0.000000
                       1.000000  1.000000  1.000000  1.000000  1.000000  1.000000
                       1.000000  1.000000  1.000000  0.000000  0.000000  0.000000
                       1.000000  1.000000  1.000000  1.000000  1.000000  1.000000
                       1.000000  1.000000  1.000000  0.000000  0.000000  0.000000
                       1.000000  1.000000  1.000000  1.000000  0.000000  0.000000
                       0.000000  0.000000  0.000000  0.000000  0.000000  0.000000
                       1.000000  1.000000  1.000000  1.000000  0.000000  0.000000
                       0.000000  0.000000  0.000000  0.000000  0.000000  0.000000
                       1.000000  1.000000  1.000000  1.000000  0.000000  0.000000
                       0.000000  0.000000  0.000000  0.000000  0.000000  0.000000
                       1.000000  1.000000  1.000000  1.000000  0.000000  0.000000
                       0.000000  0.000000  0.000000  0.000000  0.000000  0.000000
                       1.000000  1.000000  1.000000  1.000000  0.000000  0.000000
                       0.000000  0.000000  0.000000  0.000000  0.000000  0.000000
                       1.000000  1.000000  1.000000  1.000000  0.000000  0.000000
                       0.000000  0.000000  0.000000  0.000000  0.000000  0.000000
                       1.000000  1.000000  1.000000  1.000000  0.000000  0.000000
                       0.000000  0.000000  0.000000  0.000000  0.000000  0.000000
                       1.000000  1.000000  1.000000  1.000000  0.000000  0.000000
                       0.000000  0.000000  0.000000  0.000000  0.000000  0.000000
           occopt           7
        optdriver           1
              qpt     -2.50000000E-01  2.50000000E-01  0.00000000E+00
            rfdir           1       0       0
           rfphon           1
            rprim      0.0000000000E+00  6.4350000000E+00  6.4350000000E+00
                       6.4350000000E+00  0.0000000000E+00  6.4350000000E+00
                       6.4350000000E+00  6.4350000000E+00  0.0000000000E+00
          spgroup         216
           spinat      0.0000000000E+00  0.0000000000E+00  0.0000000000E+00
                       0.0000000000E+00  0.0000000000E+00  5.0000000000E+00
                       0.0000000000E+00  0.0000000000E+00  0.0000000000E+00
           strten      0.0000000000E+00  0.0000000000E+00  0.0000000000E+00
                       0.0000000000E+00  0.0000000000E+00  0.0000000000E+00
           symrel      1  0  0   0  1  0   0  0  1       0 -1  1   0 -1  0   1 -1  0
                      -1  0  0  -1  0  1  -1  1  0       0  1 -1   1  0 -1   0  0 -1
                      -1  0  0  -1  1  0  -1  0  1       0 -1  1   1 -1  0   0 -1  0
                       1  0  0   0  0  1   0  1  0       0  1 -1   0  0 -1   1  0 -1
                      -1  0  1  -1  1  0  -1  0  0       0 -1  0   1 -1  0   0 -1  1
                       1  0 -1   0  0 -1   0  1 -1       0  1  0   0  0  1   1  0  0
                       1  0 -1   0  1 -1   0  0 -1       0 -1  0   0 -1  1   1 -1  0
                      -1  0  1  -1  0  0  -1  1  0       0  1  0   1  0  0   0  0  1
                       0  0 -1   0  1 -1   1  0 -1       1 -1  0   0 -1  1   0 -1  0
                       0  0  1   1  0  0   0  1  0      -1  1  0  -1  0  0  -1  0  1
                       0  0  1   0  1  0   1  0  0       1 -1  0   0 -1  0   0 -1  1
                       0  0 -1   1  0 -1   0  1 -1      -1  1  0  -1  0  1  -1  0  0
           tolvrs      1.00000000E-12
           tsmear      3.60000000E-05 Hartree
            typat      1  2  3
              wtk        0.01563    0.12500    0.06250    0.09375    0.37500    0.18750
                         0.04688    0.09375
           xangst      0.0000000000E+00  0.0000000000E+00  0.0000000000E+00
                       3.4052553373E+00  3.4052553373E+00  3.4052553373E+00
                       1.7026276686E+00  1.7026276686E+00  1.7026276686E+00
            xcart      0.0000000000E+00  0.0000000000E+00  0.0000000000E+00
                       6.4350000000E+00  6.4350000000E+00  6.4350000000E+00
                       3.2175000000E+00  3.2175000000E+00  3.2175000000E+00
             xred      0.0000000000E+00  0.0000000000E+00  0.0000000000E+00
                       5.0000000000E-01  5.0000000000E-01  5.0000000000E-01
                       2.5000000000E-01  2.5000000000E-01  2.5000000000E-01
            znucl        3.00000   25.00000   15.00000

 Suggested references for the acknowledgment of ABINIT usage.

 [1] First-principles responses of solids to atomic displacements and homogeneous electric fields:,
 implementation of a conjugate-gradient algorithm. X. Gonze, Phys. Rev. B55, 10337 (1997).
 Comment : Non-vanishing rfphon and/or rfelfd, in the norm-conserving case.

 [2] Dynamical matrices, Born effective charges, dielectric permittivity tensors, and ,
 interatomic force constants from density-functional perturbation theory,
 X. Gonze and C. Lee, Phys. Rev. B55, 10355 (1997).
 Comment : Non-vanishing rfphon and/or rfelfd, in the norm-conserving case.

 [3] Ab initio pseudopotentials for electronic structure calculations of poly-atomic systems,
 using density-functional theory.
 M. Fuchs, M. Scheffler, Comput. Phys. Commun. 119, 67 (1999).
 Comment : Some pseudopotential generated using the FHI code were used.

 [4] ABINIT : First-principles approach of materials and nanosystem properties.
 X. Gonze, B. Amadon, P.-M. Anglade, J.-M. Beuken, F. Bottin, P. Boulanger, F. Bruneval,
 D. Caliste, R. Caracas, M. Cote, T. Deutsch, L. Genovese, Ph. Ghosez, M. Giantomassi
 S. Goedecker, D.R. Hamann, P. Hermet, F. Jollet, G. Jomard, S. Leroux, M. Mancini, S. Mazevet,
 M.J.T. Oliveira, G. Onida, Y. Pouillon, T. Rangel, G.-M. Rignanese, D. Sangalli, R. Shaltaf,
 M. Torrent, M.J. Verstraete, G. Zerah, J.W. Zwanziger
 Computer Phys. Comm. 180, 2582-2615 (2009).
 Comment : the third generic paper describing the ABINIT project.
 Note that a version of this paper, that is not formatted for Computer Phys. Comm.
 The licence allows the authors to put it on the Web.

 [5] A brief introduction to the ABINIT software package.
 X. Gonze, G.-M. Rignanese, M. Verstraete, J.-M. Beuken, Y. Pouillon, R. Caracas, F. Jollet,
 M. Torrent, G. Zerah, M. Mikami, Ph. Ghosez, M. Veithen, J.-Y. Raty, V. Olevano, F. Bruneval,
 L. Reining, R. Godby, G. Onida, D.R. Hamann, and D.C. Allan.
 Z. Kristallogr. 220, 558-562 (2005).
 Comment : the second generic paper describing the ABINIT project. Note that this paper
 should be cited especially if you are using the GW part of ABINIT, as several authors
 of this part are not in the list of authors of the first or third paper.
 Note that it should not redistributed (Copyright by Oldenburg Wissenshaftverlag,
 the licence allows the authors to put it on the Web).

 Calculation completed.
.Delivered    2 WARNINGs and   0 COMMENTs to log file.
--- !FinalSummary
start_date: Mon Apr 28 10:29:37 2014
end_date: Mon Apr 28 10:31:45 2014
overall_cpu_time:        1013.7
overall_wall_time:        1024.4
...