.Version 8.10.3 of ABINIT

 ABINIT is a project of the Universite Catholique de Louvain,
 Corning Inc. and other collaborators, see ~abinit/doc/developers/contributors.txt .
 acknowledgments of the ABINIT effort.

.Starting date : Sat 20 Jun 2020.
- ( at 18h41 )

- input  file    -> ZnO.in
- output file    -> ZnO.out
- root for input  files -> ZnO_i
- root for output files -> ZnO_o

 DATASET    1 : space group P6_3 m c (#186); Bravais hP (primitive hexag.)
     intxc =       0    ionmov =       0      iscf =       7    lmnmax =       6
     lnmax =       6     mgfft =      72  mpssoang =       3    mqgrid =    3252
     natom =       4  nloc_mem =       1    nspden =       1   nspinor =       1
    nsppol =       1      nsym =      12    n1xccc =    2501    ntypat =       2
    occopt =       1   xclevel =       1
-    mband =          27        mffmem =           1         mkmem =          46
       mpw =        5988          nfft =      145800          nkpt =         363
  Rough estimation (10% accuracy) of disk space for files :

[...]

 DATASET    3 : space group P6_3 m c (#186); Bravais hP (primitive hexag.)
     intxc =       0      iscf =       7    lmnmax =       6     lnmax =       6
     mgfft =      64  mpssoang =       3    mqgrid =    3097     natom =       4
  nloc_mem =       1    nspden =       1   nspinor =       1    nsppol =       1
      nsym =      12    n1xccc =    2501    ntypat =       2    occopt =       1
   xclevel =       1
-    mband =          27        mffmem =           1         mkmem =          47
-   mkqmem =          47        mk1mem =          47           mpw =        5209
      nfft =      102400          nkpt =         363
  Rough estimation (10% accuracy) of disk space for files :

[...]

 DATASET    6 : space group P6_3 m c (#186); Bravais hP (primitive hexag.)
     intxc =       0      iscf =       7    lmnmax =      18     lnmax =       6
     mgfft =      64  mpssoang =       3    mqgrid =    3097     natom =       4
  nloc_mem =       1    nspden =       1   nspinor =       1    nsppol =       1
      nsym =      12    n1xccc =    2501    ntypat =       2    occopt =       1
   xclevel =       1
-    mband =          27        mffmem =           1         mkmem =          47
-   mkqmem =          47        mk1mem =          47           mpw =        5209
      nfft =      102400          nkpt =         363
  Rough estimation (10% accuracy) of disk space for files :

 DATASET    7 : space group P6_3 m c (#186); Bravais hP (primitive hexag.)
     intxc =       0    ionmov =       0      iscf =       7    lmnmax =       6
     lnmax =       6     mgfft =      64  mpssoang =       3    mqgrid =    3097
     natom =       4  nloc_mem =       1    nspden =       1   nspinor =       1
    nsppol =       1      nsym =      12    n1xccc =    2501    ntypat =       2
    occopt =       1   xclevel =       1
-    mband =          27        mffmem =           1         mkmem =          46
       mpw =        5209          nfft =      102400          nkpt =         363
  Rough estimation (10% accuracy) of disk space for files :

------------- Echo of variables that govern the present computation ------------
-
- outvars: echo of selected default values
-   iomode0 =  0 , fftalg0 =312 , wfoptalg0 =  0
-
- outvars: echo of global parameters not present in the input file
-  max_nthreads =    0
-
 -outvars: echo values of preprocessed input variables --------
            acell      6.0186817743E+00  6.0186817745E+00  9.7273849024E+00 Bohr
              amu      6.53900000E+01  1.59994000E+01
          dilatmx1     1.05000000E+00
          dilatmx2     1.00000000E+00
          dilatmx3     1.00000000E+00
          dilatmx4     1.00000000E+00
          dilatmx5     1.00000000E+00
          dilatmx6     1.00000000E+00
          dilatmx7     1.00000000E+00
  d3e_pert1_atpol1          1       1
  d3e_pert1_atpol2          1       1
  d3e_pert1_atpol3          1       1
  d3e_pert1_atpol4          1       1
  d3e_pert1_atpol5          1       1
  d3e_pert1_atpol6          1       1
  d3e_pert1_atpol7          1       2
    d3e_pert1_dir1          0       0       0
    d3e_pert1_dir2          0       0       0
    d3e_pert1_dir3          0       0       0
    d3e_pert1_dir4          0       0       0
    d3e_pert1_dir5          0       0       0
    d3e_pert1_dir6          0       0       0
    d3e_pert1_dir7          1       1       1
   d3e_pert1_elfd1          0
   d3e_pert1_elfd2          0
   d3e_pert1_elfd3          0
   d3e_pert1_elfd4          0
   d3e_pert1_elfd5          0
   d3e_pert1_elfd6          0
   d3e_pert1_elfd7          1
   d3e_pert1_phon1          0
   d3e_pert1_phon2          0
   d3e_pert1_phon3          0
   d3e_pert1_phon4          0
   d3e_pert1_phon5          0
   d3e_pert1_phon6          0
   d3e_pert1_phon7          1
    d3e_pert2_dir1          0       0       0
    d3e_pert2_dir2          0       0       0
    d3e_pert2_dir3          0       0       0
    d3e_pert2_dir4          0       0       0
    d3e_pert2_dir5          0       0       0
    d3e_pert2_dir6          0       0       0
    d3e_pert2_dir7          1       1       1
   d3e_pert2_elfd1          0
   d3e_pert2_elfd2          0
   d3e_pert2_elfd3          0
   d3e_pert2_elfd4          0
   d3e_pert2_elfd5          0
   d3e_pert2_elfd6          0
   d3e_pert2_elfd7          1
    d3e_pert3_dir1          0       0       0
    d3e_pert3_dir2          0       0       0
    d3e_pert3_dir3          0       0       0
    d3e_pert3_dir4          0       0       0
    d3e_pert3_dir5          0       0       0
    d3e_pert3_dir6          0       0       0
    d3e_pert3_dir7          1       1       1
   d3e_pert3_elfd1          0
   d3e_pert3_elfd2          0
   d3e_pert3_elfd3          0
   d3e_pert3_elfd4          0
   d3e_pert3_elfd5          0
   d3e_pert3_elfd6          0
   d3e_pert3_elfd7          1
             ecut      5.00000000E+01 Hartree
           ecutsm1     5.00000000E-01 Hartree
           ecutsm2     0.00000000E+00 Hartree
           ecutsm3     0.00000000E+00 Hartree
           ecutsm4     0.00000000E+00 Hartree
           ecutsm5     0.00000000E+00 Hartree
           ecutsm6     0.00000000E+00 Hartree
           ecutsm7     0.00000000E+00 Hartree
-          fftalg         312
           getddk1          0
           getddk2          0
           getddk3          0
           getddk4          3
           getddk5          3
           getddk6          3
           getddk7          3
         getdelfd1          0
         getdelfd2          0
         getdelfd3          0
         getdelfd4          0
         getdelfd5          0
         getdelfd6          4
         getdelfd7          0
          getdkdk1          0
          getdkdk2          0
          getdkdk3          0
          getdkdk4          0
          getdkdk5          0
          getdkdk6          5
          getdkdk7          0
          getdkde1          0
          getdkde2          0
          getdkde3          0
          getdkde4          0
          getdkde5          0
          getdkde6          0
          getdkde7          6
           getden1          0
           getden2          1
           getden3          2
           getden4          2
           getden5          2
           getden6          2
           getden7          2
           getwfk1          0
           getwfk2          1
           getwfk3          2
           getwfk4          2
           getwfk5          2
           getwfk6          2
           getwfk7          2
          get1den1          0
          get1den2          0
          get1den3          0
          get1den4          0
          get1den5          0
          get1den6          4
          get1den7          4
           get1wf1          0
           get1wf2          0
           get1wf3          0
           get1wf4          0
           get1wf5          0
           get1wf6          0
           get1wf7          4
              ixc           3
           jdtset        1    2    3    4    5    6    7
              kpt      0.00000000E+00  0.00000000E+00  8.33333333E-02
                       9.09090909E-02  0.00000000E+00  8.33333333E-02
                       1.81818182E-01  0.00000000E+00  8.33333333E-02
                       2.72727273E-01  0.00000000E+00  8.33333333E-02
                       3.63636364E-01  0.00000000E+00  8.33333333E-02
                       4.54545455E-01  0.00000000E+00  8.33333333E-02
                      -4.54545455E-01  0.00000000E+00  8.33333333E-02
                      -3.63636364E-01  0.00000000E+00  8.33333333E-02
                      -2.72727273E-01  0.00000000E+00  8.33333333E-02
                      -1.81818182E-01  0.00000000E+00  8.33333333E-02
                      -9.09090909E-02  0.00000000E+00  8.33333333E-02
                       0.00000000E+00  9.09090909E-02  8.33333333E-02
                       9.09090909E-02  9.09090909E-02  8.33333333E-02
                       1.81818182E-01  9.09090909E-02  8.33333333E-02
                       2.72727273E-01  9.09090909E-02  8.33333333E-02
                       3.63636364E-01  9.09090909E-02  8.33333333E-02
                       4.54545455E-01  9.09090909E-02  8.33333333E-02
                      -4.54545455E-01  9.09090909E-02  8.33333333E-02
                      -3.63636364E-01  9.09090909E-02  8.33333333E-02
                      -2.72727273E-01  9.09090909E-02  8.33333333E-02
                      -1.81818182E-01  9.09090909E-02  8.33333333E-02
                      -9.09090909E-02  9.09090909E-02  8.33333333E-02
                       0.00000000E+00  1.81818182E-01  8.33333333E-02
                       9.09090909E-02  1.81818182E-01  8.33333333E-02
                       1.81818182E-01  1.81818182E-01  8.33333333E-02
                       2.72727273E-01  1.81818182E-01  8.33333333E-02
                       3.63636364E-01  1.81818182E-01  8.33333333E-02
                       4.54545455E-01  1.81818182E-01  8.33333333E-02
                      -4.54545455E-01  1.81818182E-01  8.33333333E-02
                      -3.63636364E-01  1.81818182E-01  8.33333333E-02
                      -2.72727273E-01  1.81818182E-01  8.33333333E-02
                      -1.81818182E-01  1.81818182E-01  8.33333333E-02
                      -9.09090909E-02  1.81818182E-01  8.33333333E-02
                       0.00000000E+00  2.72727273E-01  8.33333333E-02
                       9.09090909E-02  2.72727273E-01  8.33333333E-02
                       1.81818182E-01  2.72727273E-01  8.33333333E-02
                       2.72727273E-01  2.72727273E-01  8.33333333E-02
                       3.63636364E-01  2.72727273E-01  8.33333333E-02
                       4.54545455E-01  2.72727273E-01  8.33333333E-02
                      -4.54545455E-01  2.72727273E-01  8.33333333E-02
                      -3.63636364E-01  2.72727273E-01  8.33333333E-02
                      -2.72727273E-01  2.72727273E-01  8.33333333E-02
                      -1.81818182E-01  2.72727273E-01  8.33333333E-02
                      -9.09090909E-02  2.72727273E-01  8.33333333E-02
[...]
                       0.0000000000E+00  0.0000000000E+00  0.0000000000E+00
                       0.0000000000E+00  0.0000000000E+00  0.0000000000E+00
            fcart7     0.0000000000E+00  0.0000000000E+00  0.0000000000E+00
                       0.0000000000E+00  0.0000000000E+00  0.0000000000E+00
                       0.0000000000E+00  0.0000000000E+00  0.0000000000E+00
                       0.0000000000E+00  0.0000000000E+00  0.0000000000E+00
-          fftalg         312
           getddk1          0
           getddk2          0
           getddk3          0
           getddk4          3
           getddk5          3
           getddk6          3
           getddk7          3
         getdelfd1          0
         getdelfd2          0
         getdelfd3          0
         getdelfd4          0
         getdelfd5          0
         getdelfd6          4
         getdelfd7          0
          getdkdk1          0
          getdkdk2          0
          getdkdk3          0
          getdkdk4          0
          getdkdk5          0
          getdkdk6          5
          getdkdk7          0
          getdkde1          0
          getdkde2          0
          getdkde3          0
          getdkde4          0
          getdkde5          0
          getdkde6          0
          getdkde7          6
           getden1          0
           getden2          1
           getden3          2
           getden4          2
           getden5          2
           getden6          2
           getden7          2
           getwfk1          0
           getwfk2          1
           getwfk3          2
           getwfk4          2
           getwfk5          2
           getwfk6          2
           getwfk7          2
          get1den1          0
          get1den2          0
          get1den3          0
          get1den4          0
          get1den5          0
          get1den6          4
          get1den7          4
           get1wf1          0
           get1wf2          0
           get1wf3          0
           get1wf4          0
           get1wf5          0
           get1wf6          0
           get1wf7          4
              ixc           3
           jdtset        1    2    3    4    5    6    7
              kpt      0.00000000E+00  0.00000000E+00  8.33333333E-02
                       9.09090909E-02  0.00000000E+00  8.33333333E-02
                       1.81818182E-01  0.00000000E+00  8.33333333E-02
                       2.72727273E-01  0.00000000E+00  8.33333333E-02
                       3.63636364E-01  0.00000000E+00  8.33333333E-02
                       4.54545455E-01  0.00000000E+00  8.33333333E-02
                      -4.54545455E-01  0.00000000E+00  8.33333333E-02
                      -3.63636364E-01  0.00000000E+00  8.33333333E-02
                      -2.72727273E-01  0.00000000E+00  8.33333333E-02
                      -1.81818182E-01  0.00000000E+00  8.33333333E-02
                      -9.09090909E-02  0.00000000E+00  8.33333333E-02
                       0.00000000E+00  9.09090909E-02  8.33333333E-02
                       9.09090909E-02  9.09090909E-02  8.33333333E-02
                       1.81818182E-01  9.09090909E-02  8.33333333E-02
                       2.72727273E-01  9.09090909E-02  8.33333333E-02
                       3.63636364E-01  9.09090909E-02  8.33333333E-02
                       4.54545455E-01  9.09090909E-02  8.33333333E-02
                      -4.54545455E-01  9.09090909E-02  8.33333333E-02
                      -3.63636364E-01  9.09090909E-02  8.33333333E-02
                      -2.72727273E-01  9.09090909E-02  8.33333333E-02
                      -1.81818182E-01  9.09090909E-02  8.33333333E-02
                      -9.09090909E-02  9.09090909E-02  8.33333333E-02
                       0.00000000E+00  1.81818182E-01  8.33333333E-02
                       9.09090909E-02  1.81818182E-01  8.33333333E-02
                       1.81818182E-01  1.81818182E-01  8.33333333E-02
                       2.72727273E-01  1.81818182E-01  8.33333333E-02
                       3.63636364E-01  1.81818182E-01  8.33333333E-02
                       4.54545455E-01  1.81818182E-01  8.33333333E-02
                      -4.54545455E-01  1.81818182E-01  8.33333333E-02
                      -3.63636364E-01  1.81818182E-01  8.33333333E-02
                      -2.72727273E-01  1.81818182E-01  8.33333333E-02
                      -1.81818182E-01  1.81818182E-01  8.33333333E-02
                      -9.09090909E-02  1.81818182E-01  8.33333333E-02
                       0.00000000E+00  2.72727273E-01  8.33333333E-02
                       9.09090909E-02  2.72727273E-01  8.33333333E-02
                       1.81818182E-01  2.72727273E-01  8.33333333E-02
                       2.72727273E-01  2.72727273E-01  8.33333333E-02
                       3.63636364E-01  2.72727273E-01  8.33333333E-02
                       4.54545455E-01  2.72727273E-01  8.33333333E-02
                      -4.54545455E-01  2.72727273E-01  8.33333333E-02
                      -3.63636364E-01  2.72727273E-01  8.33333333E-02
                      -2.72727273E-01  2.72727273E-01  8.33333333E-02
                      -1.81818182E-01  2.72727273E-01  8.33333333E-02
                      -9.09090909E-02  2.72727273E-01  8.33333333E-02
                       0.00000000E+00  3.63636364E-01  8.33333333E-02
                       9.09090909E-02  3.63636364E-01  8.33333333E-02
                       1.81818182E-01  3.63636364E-01  8.33333333E-02
                       2.72727273E-01  3.63636364E-01  8.33333333E-02
                       3.63636364E-01  3.63636364E-01  8.33333333E-02
                       4.54545455E-01  3.63636364E-01  8.33333333E-02
                       outvar_i_n : Printing only first  50 k-points.
           kptopt           2
         kptrlatt       11    0    0      0   11    0      0    0    6
          kptrlen      5.83643094E+01
P           mkmem1         46
P           mkmem2         46
P           mkmem3         47
P           mkmem4         47
P           mkmem5         47
P           mkmem6         47
P           mkmem7         46
P          mkqmem1         46
P          mkqmem2         46
P          mkqmem3         47
P          mkqmem4         47
P          mkqmem5         47
P          mkqmem6         47
P          mkqmem7         46
P          mk1mem1         46
P          mk1mem2         46
P          mk1mem3         47
P          mk1mem4         47
P          mk1mem5         47
P          mk1mem6         47
P          mk1mem7         46
            natom           4
            nband          27
           ndtset           7
            ngfft1         45      45      72
            ngfft2         40      40      64
            ngfft3         40      40      64
            ngfft4         40      40      64
            ngfft5         40      40      64
            ngfft6         40      40      64
            ngfft7         40      40      64
             nkpt         363
            nline1          4
            nline2          4
            nline3        100
            nline4          4
            nline5        100
            nline6        100
            nline7          4
            nstep1         50
            nstep2         60
            nstep3          1
            nstep4         60
            nstep5          1
            nstep6          1
            nstep7         60
             nsym          12
            ntime1        200
            ntime2          1
            ntime3          1
            ntime4          1
            ntime5          1
            ntime6          1
            ntime7          1
           ntypat           2
              occ      2.000000  2.000000  2.000000  2.000000  2.000000  2.000000
                       2.000000  2.000000  2.000000  2.000000  2.000000  2.000000
                       2.000000  2.000000  2.000000  2.000000  2.000000  2.000000
                       2.000000  2.000000  2.000000  2.000000  2.000000  2.000000
                       2.000000  2.000000  0.000000
        optdriver1          0
        optdriver2          0
        optdriver3          1
        optdriver4          1
        optdriver5          1
        optdriver6          1
        optdriver7          5
          prepanl1          0
          prepanl2          0
          prepanl3          0
          prepanl4          1
          prepanl5          1
          prepanl6          1
          prepanl7          0
          rfatpol1          1       1
          rfatpol2          1       1
          rfatpol3          1       1
          rfatpol4          1       2
          rfatpol5          1       1
          rfatpol6          1       1
          rfatpol7          1       1
            rfddk1          0
            rfddk2          0
            rfddk3          1
            rfddk4          0
            rfddk5          0
            rfddk6          0
            rfddk7          0
            rfdir1          0       0       0
            rfdir2          0       0       0
            rfdir3          1       1       1
            rfdir4          1       1       1
            rfdir5          1       1       1
            rfdir6          1       1       1
            rfdir7          0       0       0
           rfelfd1          0
           rfelfd2          0
           rfelfd3          0
           rfelfd4          3
           rfelfd5          0
           rfelfd6          0
           rfelfd7          0
           rfphon1          0
           rfphon2          0
           rfphon3          0
           rfphon4          1
           rfphon5          0
           rfphon6          0
           rfphon7          0
         rf2_dkdk1          0
         rf2_dkdk2          0
         rf2_dkdk3          0
         rf2_dkdk4          0
         rf2_dkdk5          1
         rf2_dkdk6          0
         rf2_dkdk7          0
         rf2_dkde1          0
         rf2_dkde2          0
         rf2_dkde3          0
         rf2_dkde4          0
         rf2_dkde5          0
         rf2_dkde6          1
         rf2_dkde7          0
    rf2_pert1_dir1          0       0       0
    rf2_pert1_dir2          0       0       0
    rf2_pert1_dir3          0       0       0
    rf2_pert1_dir4          0       0       0
    rf2_pert1_dir5          1       1       1
    rf2_pert1_dir6          1       1       1
    rf2_pert1_dir7          0       0       0
    rf2_pert2_dir1          0       0       0
    rf2_pert2_dir2          0       0       0
    rf2_pert2_dir3          0       0       0
    rf2_pert2_dir4          0       0       0
    rf2_pert2_dir5          1       1       1
    rf2_pert2_dir6          1       1       1
    rf2_pert2_dir7          0       0       0
            rprim      8.6602540378E-01 -5.0000000000E-01  0.0000000000E+00
                      -3.8375667350E-27  1.0000000000E+00  0.0000000000E+00
                       0.0000000000E+00  0.0000000000E+00  1.0000000000E+00
           shiftk      0.00000000E+00  0.00000000E+00  5.00000000E-01
          spgroup         186
           strten1     1.4443657446E-07  1.4443374696E-07  2.3840232211E-07
                       0.0000000000E+00  0.0000000000E+00 -7.0715777351E-13
           strten2     3.5394998179E-07  3.5394715426E-07  4.5104375198E-07
                       0.0000000000E+00  0.0000000000E+00 -7.0716092420E-13
           strten3     0.0000000000E+00  0.0000000000E+00  0.0000000000E+00
                       0.0000000000E+00  0.0000000000E+00  0.0000000000E+00
           strten4     0.0000000000E+00  0.0000000000E+00  0.0000000000E+00
                       0.0000000000E+00  0.0000000000E+00  0.0000000000E+00
           strten5     0.0000000000E+00  0.0000000000E+00  0.0000000000E+00
                       0.0000000000E+00  0.0000000000E+00  0.0000000000E+00
           strten6     0.0000000000E+00  0.0000000000E+00  0.0000000000E+00
                       0.0000000000E+00  0.0000000000E+00  0.0000000000E+00
           strten7     0.0000000000E+00  0.0000000000E+00  0.0000000000E+00
                       0.0000000000E+00  0.0000000000E+00  0.0000000000E+00
           symrel      1  0  0   0  1  0   0  0  1       0  1  0   1  0  0   0  0  1
                       1  1  0  -1  0  0   0  0  1      -1  0  0   1  1  0   0  0  1
                       0  1  0  -1 -1  0   0  0  1      -1 -1  0   0  1  0   0  0  1
                      -1  0  0   0 -1  0   0  0  1       0 -1  0  -1  0  0   0  0  1
                      -1 -1  0   1  0  0   0  0  1       1  0  0  -1 -1  0   0  0  1
                       0 -1  0   1  1  0   0  0  1       1  1  0   0 -1  0   0  0  1
            tnons      0.0000000  0.0000000  0.0000000     0.0000000  0.0000000  0.5000000
                       0.0000000  0.0000000  0.5000000    -0.0000000  0.0000000  0.0000000
                      -0.0000000  0.0000000  0.0000000    -0.0000000 -0.0000000  0.5000000
                      -0.0000000 -0.0000000  0.5000000    -0.0000000 -0.0000000  0.0000000
                      -0.0000000 -0.0000000  0.0000000     0.0000000 -0.0000000  0.5000000
                       0.0000000 -0.0000000  0.5000000     0.0000000  0.0000000  0.0000000
           tolmxf1     1.00000000E-05
           tolmxf2     5.00000000E-05
           tolmxf3     5.00000000E-05
           tolmxf4     5.00000000E-05
           tolmxf5     5.00000000E-05
           tolmxf6     5.00000000E-05
           tolmxf7     5.00000000E-05
           tolrde1     5.00000000E-03
           tolrde2     5.00000000E-03
           tolrde3     1.00000000E-30
           tolrde4     5.00000000E-03
           tolrde5     5.00000000E-03
           tolrde6     5.00000000E-03
           tolrde7     5.00000000E-03
           tolvrs1     1.00000000E-10
           tolvrs2     0.00000000E+00
           tolvrs3     0.00000000E+00
           tolvrs4     0.00000000E+00
           tolvrs5     0.00000000E+00
           tolvrs6     0.00000000E+00
           tolvrs7     0.00000000E+00
           tolwfr1     0.00000000E+00
           tolwfr2     1.00000000E-28
           tolwfr3     1.00000000E-28
           tolwfr4     1.00000000E-28
           tolwfr5     1.00000000E-28
           tolwfr6     1.00000000E-28
           tolwfr7     1.00000000E-28
            typat      1  1  2  2
          usepead1          1
          usepead2          1
          usepead3          1
          usepead4          1
          usepead5          1
          usepead6          1
          usepead7          0
           useylm1          0
           useylm2          0
           useylm3          0
           useylm4          0
           useylm5          1
           useylm6          1
           useylm7          0
              wtk        0.00275    0.00275    0.00275    0.00275    0.00275    0.00275
                         0.00275    0.00275    0.00275    0.00275    0.00275    0.00275
                         0.00275    0.00275    0.00275    0.00275    0.00275    0.00275
                         0.00275    0.00275    0.00275    0.00275    0.00275    0.00275
                         0.00275    0.00275    0.00275    0.00275    0.00275    0.00275
                         0.00275    0.00275    0.00275    0.00275    0.00275    0.00275
                         0.00275    0.00275    0.00275    0.00275    0.00275    0.00275
                         0.00275    0.00275    0.00275    0.00275    0.00275    0.00275
                         0.00275    0.00275
                       outvars : Printing only first  50 k-points.
           xangst      9.1941564496E-01  1.5924746104E+00  1.0264742454E-02
                       1.8388312899E+00  3.5278072421E-11  2.5840199372E+00
                       9.1941564496E-01  1.5924746104E+00  1.9586579820E+00
                       1.8388312899E+00  3.5278072421E-11  4.5324131768E+00
            xcart      1.7374437713E+00  3.0093408873E+00  1.9397552062E-02
                       3.4748875425E+00  6.6665895372E-11  4.8830900033E+00
                       1.7374437713E+00  3.0093408873E+00  3.7013271740E+00
                       3.4748875425E+00  6.6665895372E-11  8.5650196252E+00
             xred      3.3333333333E-01  6.6666666667E-01  1.9941178700E-03
                       6.6666666667E-01  3.3333333333E-01  5.0199411787E-01
                       3.3333333333E-01  6.6666666667E-01  3.8050588222E-01
                       6.6666666667E-01  3.3333333333E-01  8.8050588222E-01
            znucl       30.00000    8.00000

- Timing analysis has been suppressed with timopt=0

 Suggested references for the acknowledgment of ABINIT usage.

 Calculation completed.
.Delivered  25 WARNINGs and   4 COMMENTs to log file.