.Version 5.3.4  of ABINIT
.(sequential version, prepared for a i686_linux_UNKNOWN computer)

 ABINIT is a project of the Universite Catholique de Louvain,
 Corning Inc. and other collaborators, see ~abinit/doc/developers/contributors.txt .
 Please read ~abinit/doc/users/acknowledgments.html for suggested
 acknowledgments of the ABINIT effort.

.Starting date : Thu  6 Mar 2014.

- input  file    -> fetih11.in
- output file    -> fetih11.out
- root for input  files -> fetih11i
- root for output files -> fetih11o

 DATASET    1 : space group P2 2 2_1 (# 17); Bravais oP (primitive ortho.)
   intxc =         0  ionmov =         0    iscf =         5     ixc =        11
  lmnmax =         4   lnmax =         4   mband =        40  mffmem =         1
P  mgfft =        30   mkmem =       216 mpssoang=         4     mpw =      1121
  mqgrid =      3001   natom =         6    nfft =     18000    nkpt =       216
  nloalg =         4  nspden =         1 nspinor =         1  nsppol =         1
    nsym =         4  n1xccc =         0  ntypat =         3  occopt =         1
  Rough estimation (10% accuracy) of disk space for files :

 DATASET    2 : space group P2 2 2_1 (# 17); Bravais oP (primitive ortho.)
   intxc =         0    iscf =         3     ixc =        11  lmnmax =         4
   lnmax =         4   mband =        40  mffmem =         1   mgfft =        30
P  mkmem =       864  mkqmem =       864  mk1mem =       864 mpssoang=         4
     mpw =      1121  mqgrid =      3001   natom =         6    nfft =     18000
    nkpt =       864  nloalg =         4  nspden =         1 nspinor =         1
  nsppol =         1    nsym =         4  n1xccc =         0  ntypat =         3
  occopt =         1
  Rough estimation (10% accuracy) of disk space for files :

 -outvars: echo values of preprocessed input variables --------
     acell    5.5860304255E+00  8.5850257858E+00  8.2921182365E+00 Bohr
       amu    5.58470000E+01  4.78800000E+01  1.00794000E+00
      ecut    1.50000000E+01 Hartree
    ecutsm    5.00000000E-01 Hartree
    getwfk1        0
    getwfk2       -1
      iscf1        5
      iscf2        3
       ixc        11
    jdtset      1    2
       kpt1   4.16666667E-02  4.16666667E-02  4.16666667E-02
              1.25000000E-01  4.16666667E-02  4.16666667E-02
              2.08333333E-01  4.16666667E-02  4.16666667E-02
              2.91666667E-01  4.16666667E-02  4.16666667E-02
              3.75000000E-01  4.16666667E-02  4.16666667E-02
              4.58333333E-01  4.16666667E-02  4.16666667E-02
              4.16666667E-02  1.25000000E-01  4.16666667E-02
              1.25000000E-01  1.25000000E-01  4.16666667E-02
              2.08333333E-01  1.25000000E-01  4.16666667E-02
              2.91666667E-01  1.25000000E-01  4.16666667E-02
              3.75000000E-01  1.25000000E-01  4.16666667E-02
              4.58333333E-01  1.25000000E-01  4.16666667E-02
              4.16666667E-02  2.08333333E-01  4.16666667E-02
              1.25000000E-01  2.08333333E-01  4.16666667E-02
              2.08333333E-01  2.08333333E-01  4.16666667E-02
              2.91666667E-01  2.08333333E-01  4.16666667E-02
              3.75000000E-01  2.08333333E-01  4.16666667E-02
              4.58333333E-01  2.08333333E-01  4.16666667E-02
              4.16666667E-02  2.91666667E-01  4.16666667E-02
              1.25000000E-01  2.91666667E-01  4.16666667E-02
              2.08333333E-01  2.91666667E-01  4.16666667E-02
              2.91666667E-01  2.91666667E-01  4.16666667E-02
              3.75000000E-01  2.91666667E-01  4.16666667E-02
              4.58333333E-01  2.91666667E-01  4.16666667E-02
              4.16666667E-02  3.75000000E-01  4.16666667E-02
              1.25000000E-01  3.75000000E-01  4.16666667E-02
              2.08333333E-01  3.75000000E-01  4.16666667E-02
              2.91666667E-01  3.75000000E-01  4.16666667E-02
              3.75000000E-01  3.75000000E-01  4.16666667E-02
              4.58333333E-01  3.75000000E-01  4.16666667E-02
              4.16666667E-02  4.58333333E-01  4.16666667E-02
              1.25000000E-01  4.58333333E-01  4.16666667E-02
              2.08333333E-01  4.58333333E-01  4.16666667E-02
              2.91666667E-01  4.58333333E-01  4.16666667E-02
              3.75000000E-01  4.58333333E-01  4.16666667E-02
              4.58333333E-01  4.58333333E-01  4.16666667E-02
              4.16666667E-02  4.16666667E-02  1.25000000E-01
              1.25000000E-01  4.16666667E-02  1.25000000E-01
              2.08333333E-01  4.16666667E-02  1.25000000E-01
              2.91666667E-01  4.16666667E-02  1.25000000E-01
              3.75000000E-01  4.16666667E-02  1.25000000E-01
              4.58333333E-01  4.16666667E-02  1.25000000E-01
              4.16666667E-02  1.25000000E-01  1.25000000E-01
              1.25000000E-01  1.25000000E-01  1.25000000E-01
              2.08333333E-01  1.25000000E-01  1.25000000E-01
              2.91666667E-01  1.25000000E-01  1.25000000E-01
              3.75000000E-01  1.25000000E-01  1.25000000E-01
              4.58333333E-01  1.25000000E-01  1.25000000E-01
              4.16666667E-02  2.08333333E-01  1.25000000E-01
              1.25000000E-01  2.08333333E-01  1.25000000E-01
                outvar1 : prtvol=0, do not print more k-points.
       kpt2   4.16666667E-02  4.16666667E-02  4.16666667E-02
              1.25000000E-01  4.16666667E-02  4.16666667E-02
              2.08333333E-01  4.16666667E-02  4.16666667E-02
              2.91666667E-01  4.16666667E-02  4.16666667E-02
              3.75000000E-01  4.16666667E-02  4.16666667E-02
              4.58333333E-01  4.16666667E-02  4.16666667E-02
             -4.58333333E-01  4.16666667E-02  4.16666667E-02
             -3.75000000E-01  4.16666667E-02  4.16666667E-02
             -2.91666667E-01  4.16666667E-02  4.16666667E-02
             -2.08333333E-01  4.16666667E-02  4.16666667E-02
             -1.25000000E-01  4.16666667E-02  4.16666667E-02
             -4.16666667E-02  4.16666667E-02  4.16666667E-02
              4.16666667E-02  1.25000000E-01  4.16666667E-02
              1.25000000E-01  1.25000000E-01  4.16666667E-02
              2.08333333E-01  1.25000000E-01  4.16666667E-02
              2.91666667E-01  1.25000000E-01  4.16666667E-02
              3.75000000E-01  1.25000000E-01  4.16666667E-02
              4.58333333E-01  1.25000000E-01  4.16666667E-02
             -4.58333333E-01  1.25000000E-01  4.16666667E-02
             -3.75000000E-01  1.25000000E-01  4.16666667E-02
             -2.91666667E-01  1.25000000E-01  4.16666667E-02
             -2.08333333E-01  1.25000000E-01  4.16666667E-02
             -1.25000000E-01  1.25000000E-01  4.16666667E-02
             -4.16666667E-02  1.25000000E-01  4.16666667E-02
              4.16666667E-02  2.08333333E-01  4.16666667E-02
              1.25000000E-01  2.08333333E-01  4.16666667E-02
              2.08333333E-01  2.08333333E-01  4.16666667E-02
              2.91666667E-01  2.08333333E-01  4.16666667E-02
              3.75000000E-01  2.08333333E-01  4.16666667E-02
              4.58333333E-01  2.08333333E-01  4.16666667E-02
             -4.58333333E-01  2.08333333E-01  4.16666667E-02
             -3.75000000E-01  2.08333333E-01  4.16666667E-02
             -2.91666667E-01  2.08333333E-01  4.16666667E-02
             -2.08333333E-01  2.08333333E-01  4.16666667E-02
             -1.25000000E-01  2.08333333E-01  4.16666667E-02
             -4.16666667E-02  2.08333333E-01  4.16666667E-02
              4.16666667E-02  2.91666667E-01  4.16666667E-02
              1.25000000E-01  2.91666667E-01  4.16666667E-02
              2.08333333E-01  2.91666667E-01  4.16666667E-02
              2.91666667E-01  2.91666667E-01  4.16666667E-02
              3.75000000E-01  2.91666667E-01  4.16666667E-02
              4.58333333E-01  2.91666667E-01  4.16666667E-02
             -4.58333333E-01  2.91666667E-01  4.16666667E-02
             -3.75000000E-01  2.91666667E-01  4.16666667E-02
             -2.91666667E-01  2.91666667E-01  4.16666667E-02
             -2.08333333E-01  2.91666667E-01  4.16666667E-02
             -1.25000000E-01  2.91666667E-01  4.16666667E-02
             -4.16666667E-02  2.91666667E-01  4.16666667E-02
              4.16666667E-02  3.75000000E-01  4.16666667E-02
              1.25000000E-01  3.75000000E-01  4.16666667E-02
                outvar1 : prtvol=0, do not print more k-points.
   kptrlen    6.70323651E+01
    kptopt1        1
    kptopt2        2
  kptrlatt   12  0  0   0 12  0   0  0 12
P    mkmem1      216
P    mkmem2      864
P   mkqmem1      216
P   mkqmem2      864
P   mk1mem1      216
P   mk1mem2      864
     natom         6
     nband1    40
     nband2    40
    ndtset         2
     ngfft        20      30      30
      nkpt1      216
      nkpt2      864
      nqpt1        0
      nqpt2        1
     nstep        20
      nsym         4
     ntime        20
    ntypat         3
       occ1   2.000000  2.000000  2.000000  2.000000  2.000000  2.000000
              2.000000  2.000000  2.000000  2.000000  2.000000  2.000000
              2.000000  0.000000  0.000000  0.000000  0.000000  0.000000
              0.000000  0.000000  0.000000  0.000000  0.000000  0.000000
              0.000000  0.000000  0.000000  0.000000  0.000000  0.000000
              0.000000  0.000000  0.000000  0.000000  0.000000  0.000000
              0.000000  0.000000  0.000000  0.000000
       occ2   2.000000  2.000000  2.000000  2.000000  2.000000  2.000000
              2.000000  2.000000  2.000000  2.000000  2.000000  2.000000
              2.000000  0.000000  0.000000  0.000000  0.000000  0.000000
              0.000000  0.000000  0.000000  0.000000  0.000000  0.000000
              0.000000  0.000000  0.000000  0.000000  0.000000  0.000000
              0.000000  0.000000  0.000000  0.000000  0.000000  0.000000
              0.000000  0.000000  0.000000  0.000000
 optdriver1        0
 optdriver2        1
   rfatpol1        1       1
   rfatpol2        1       6
     rfdir1        0       0       0
     rfdir2        1       1       1
    rfphon1        0
    rfphon2        1
    rfstrs1        0
    rfstrs2        3
    shiftk    5.00000000E-01  5.00000000E-01  5.00000000E-01
   spgroup        17
    symrel    1  0  0   0  1  0   0  0  1      -1  0  0   0 -1  0   0  0  1
              1  0  0   0 -1  0   0  0 -1      -1  0  0   0  1  0   0  0 -1
     tnons    0.0000000  0.0000000  0.0000000     0.0000000  0.0000000  0.5000000
              0.0000000  0.0000000  0.0000000     0.0000000  0.0000000  0.5000000
    tolvrs1   1.00000000E-18
    tolvrs2   1.00000000E-10
     typat    1  2  3  1  2  3
       wtk1     0.00463    0.00463    0.00463    0.00463    0.00463    0.00463
                0.00463    0.00463    0.00463    0.00463    0.00463    0.00463
                0.00463    0.00463    0.00463    0.00463    0.00463    0.00463
                0.00463    0.00463    0.00463    0.00463    0.00463    0.00463
                0.00463    0.00463    0.00463    0.00463    0.00463    0.00463
                0.00463    0.00463    0.00463    0.00463    0.00463    0.00463
[...]
   1    1   1    2        -3.5728628890         0.0000000000
   1    1   2    2         0.0000000010        -0.0000000000
   1    1   3    2         0.0000019567        -0.0000000000
   1    1   1    3         0.7939185120         0.0000000000
   1    1   2    3         0.0000038572         0.0000000000
   1    1   3    3         0.0000002054        -0.0000000000
   1    1   1    4         0.2277347096         0.0000000000
   1    1   2    4        -0.0086849503         0.0000000000
   1    1   3    4        -0.0000346498         0.0000000000
   1    1   1    5         0.3111341470        -0.0000000000
   1    1   2    5        -0.0040390887        -0.0000000000
   1    1   3    5        -0.0000553732        -0.0000000000
   1    1   1    6         0.7939101077        -0.0000000000
   1    1   2    6        -0.0203601436        -0.0000000000
   1    1   3    6         0.0166994972         0.0000000000
   1    1   2    8         0.0000000000         0.0000000000
   1    1   1    9        -0.0000000000         0.0000000000
   1    1   2    9        -0.0000000000         0.0000000000
   1    1   3    9        -0.0000000000         0.0000000000
   1    1   1   10         0.0000156141         0.0000000000
   1    1   2   10        -0.0000000000         0.0000000000
   1    1   3   10        -0.9591403184         0.0000000000

[...]

  Dynamical matrix, in cartesian coordinates,
   if specified in the inputs, asr has been imposed
     j1       j2             matrix element
  dir pert dir pert     real part    imaginary part

[...]

  Rigid-atom elastic tensor , in cartesian coordinates,
     j1       j2             matrix element
  dir pert dir pert     real part    imaginary part

[...]

  Internal strain coupling parameters, in cartesian coordinates,
   zero average net force deriv. has been imposed
     j1       j2             matrix element
  dir pert dir pert     real part    imaginary part

[...]

   3    6   1    9         0.0000000000         0.0000000000
   3    6   2    9         0.0000000000         0.0000000000
   3    6   3    9         0.0000000000         0.0000000000
   3    6   1   10        -0.0000000000         0.0000000000
   3    6   2   10       -28.8141888199         0.0000000000
   3    6   3   10        -0.0000009418         0.0000000000

  Phonon wavevector (reduced coordinates) :  0.00000  0.00000  0.00000
 Phonon energies in Hartree :
  -1.043705E+01 -6.814911E+00 -1.239979E+00 -5.030872E-01 -5.268010E-03
  -5.232685E-03 -3.410457E-03 -3.866228E-04  5.110746E-04  9.863250E-04
   1.588071E-03  1.601373E-03  2.041345E-03  2.470975E-03  8.524193E-01
   2.528740E+00  2.762978E+00  1.041256E+01
 Phonon frequencies in cm-1    :
- -2.290668E+06 -1.495700E+06 -2.721439E+05 -1.104149E+05 -1.156195E+03
- -1.148442E+03 -7.485088E+02 -8.485389E+01  1.121679E+02  2.164733E+02
-  3.485413E+02  3.514607E+02  4.480234E+02  5.423163E+02  1.870844E+05
-  5.549944E+05  6.064035E+05  2.285294E+06

== END DATASET(S) ==============================================================

 -outvars: echo values of variables after computation  --------
     acell    5.5860304255E+00  8.5850257858E+00  8.2921182365E+00 Bohr
       amu    5.58470000E+01  4.78800000E+01  1.00794000E+00
      ecut    1.50000000E+01 Hartree
    ecutsm    5.00000000E-01 Hartree
    etotal1  -4.4767436342E+01
    etotal2  -5.2842984609E-01
     fcart1  -2.0507186020E-24  1.4826767008E-01 -9.0784765423E-18
             -2.0507186020E-24  1.1104805613E-01 -6.7995077561E-18
             -6.5870394046E-07 -6.6628553041E-19  4.0332651539E-23
             -2.0507186020E-24 -1.4826767008E-01  9.0784765423E-18
             -2.0507186020E-24 -1.1104805613E-01  6.7995077561E-18
              6.5870394046E-07 -6.6636619572E-19 -4.0332651539E-23
     fcart2   0.0000000000E+00  0.0000000000E+00  0.0000000000E+00
              0.0000000000E+00  0.0000000000E+00  0.0000000000E+00
              0.0000000000E+00  0.0000000000E+00  0.0000000000E+00
              0.0000000000E+00  0.0000000000E+00  0.0000000000E+00
              0.0000000000E+00  0.0000000000E+00  0.0000000000E+00
              0.0000000000E+00  0.0000000000E+00  0.0000000000E+00
    getwfk1        0
    getwfk2       -1
      iscf1        5
      iscf2        3
       ixc        11
    jdtset      1    2
       kpt1   4.16666667E-02  4.16666667E-02  4.16666667E-02
              1.25000000E-01  4.16666667E-02  4.16666667E-02
              2.08333333E-01  4.16666667E-02  4.16666667E-02
              2.91666667E-01  4.16666667E-02  4.16666667E-02
              3.75000000E-01  4.16666667E-02  4.16666667E-02
              4.58333333E-01  4.16666667E-02  4.16666667E-02
              4.16666667E-02  1.25000000E-01  4.16666667E-02
              1.25000000E-01  1.25000000E-01  4.16666667E-02
              2.08333333E-01  1.25000000E-01  4.16666667E-02
              2.91666667E-01  1.25000000E-01  4.16666667E-02
              3.75000000E-01  1.25000000E-01  4.16666667E-02
              4.58333333E-01  1.25000000E-01  4.16666667E-02
              4.16666667E-02  2.08333333E-01  4.16666667E-02
              1.25000000E-01  2.08333333E-01  4.16666667E-02
              2.08333333E-01  2.08333333E-01  4.16666667E-02
              2.91666667E-01  2.08333333E-01  4.16666667E-02
              3.75000000E-01  2.08333333E-01  4.16666667E-02
              4.58333333E-01  2.08333333E-01  4.16666667E-02
              4.16666667E-02  2.91666667E-01  4.16666667E-02
              1.25000000E-01  2.91666667E-01  4.16666667E-02
              2.08333333E-01  2.91666667E-01  4.16666667E-02
              2.91666667E-01  2.91666667E-01  4.16666667E-02
              3.75000000E-01  2.91666667E-01  4.16666667E-02
              4.58333333E-01  2.91666667E-01  4.16666667E-02
              4.16666667E-02  3.75000000E-01  4.16666667E-02
              1.25000000E-01  3.75000000E-01  4.16666667E-02
              2.08333333E-01  3.75000000E-01  4.16666667E-02
              2.91666667E-01  3.75000000E-01  4.16666667E-02
              3.75000000E-01  3.75000000E-01  4.16666667E-02
              4.58333333E-01  3.75000000E-01  4.16666667E-02
              4.16666667E-02  4.58333333E-01  4.16666667E-02
              1.25000000E-01  4.58333333E-01  4.16666667E-02
              2.08333333E-01  4.58333333E-01  4.16666667E-02
              2.91666667E-01  4.58333333E-01  4.16666667E-02
              3.75000000E-01  4.58333333E-01  4.16666667E-02
              4.58333333E-01  4.58333333E-01  4.16666667E-02
              4.16666667E-02  4.16666667E-02  1.25000000E-01
              1.25000000E-01  4.16666667E-02  1.25000000E-01
              2.08333333E-01  4.16666667E-02  1.25000000E-01
              2.91666667E-01  4.16666667E-02  1.25000000E-01
              3.75000000E-01  4.16666667E-02  1.25000000E-01
              4.58333333E-01  4.16666667E-02  1.25000000E-01
              4.16666667E-02  1.25000000E-01  1.25000000E-01
              1.25000000E-01  1.25000000E-01  1.25000000E-01
              2.08333333E-01  1.25000000E-01  1.25000000E-01
              2.91666667E-01  1.25000000E-01  1.25000000E-01
              3.75000000E-01  1.25000000E-01  1.25000000E-01
              4.58333333E-01  1.25000000E-01  1.25000000E-01
              4.16666667E-02  2.08333333E-01  1.25000000E-01
              1.25000000E-01  2.08333333E-01  1.25000000E-01
                outvar1 : prtvol=0, do not print more k-points.
       kpt2   4.16666667E-02  4.16666667E-02  4.16666667E-02
              1.25000000E-01  4.16666667E-02  4.16666667E-02
              2.08333333E-01  4.16666667E-02  4.16666667E-02
              2.91666667E-01  4.16666667E-02  4.16666667E-02
              3.75000000E-01  4.16666667E-02  4.16666667E-02
              4.58333333E-01  4.16666667E-02  4.16666667E-02
             -4.58333333E-01  4.16666667E-02  4.16666667E-02
             -3.75000000E-01  4.16666667E-02  4.16666667E-02
             -2.91666667E-01  4.16666667E-02  4.16666667E-02
             -2.08333333E-01  4.16666667E-02  4.16666667E-02
             -1.25000000E-01  4.16666667E-02  4.16666667E-02
             -4.16666667E-02  4.16666667E-02  4.16666667E-02
              4.16666667E-02  1.25000000E-01  4.16666667E-02
              1.25000000E-01  1.25000000E-01  4.16666667E-02
              2.08333333E-01  1.25000000E-01  4.16666667E-02
              2.91666667E-01  1.25000000E-01  4.16666667E-02
              3.75000000E-01  1.25000000E-01  4.16666667E-02
              4.58333333E-01  1.25000000E-01  4.16666667E-02
             -4.58333333E-01  1.25000000E-01  4.16666667E-02
             -3.75000000E-01  1.25000000E-01  4.16666667E-02
             -2.91666667E-01  1.25000000E-01  4.16666667E-02
             -2.08333333E-01  1.25000000E-01  4.16666667E-02
             -1.25000000E-01  1.25000000E-01  4.16666667E-02
             -4.16666667E-02  1.25000000E-01  4.16666667E-02
              4.16666667E-02  2.08333333E-01  4.16666667E-02
              1.25000000E-01  2.08333333E-01  4.16666667E-02
              2.08333333E-01  2.08333333E-01  4.16666667E-02
              2.91666667E-01  2.08333333E-01  4.16666667E-02
              3.75000000E-01  2.08333333E-01  4.16666667E-02
              4.58333333E-01  2.08333333E-01  4.16666667E-02
             -4.58333333E-01  2.08333333E-01  4.16666667E-02
             -3.75000000E-01  2.08333333E-01  4.16666667E-02
             -2.91666667E-01  2.08333333E-01  4.16666667E-02
             -2.08333333E-01  2.08333333E-01  4.16666667E-02
             -1.25000000E-01  2.08333333E-01  4.16666667E-02
             -4.16666667E-02  2.08333333E-01  4.16666667E-02
              4.16666667E-02  2.91666667E-01  4.16666667E-02
              1.25000000E-01  2.91666667E-01  4.16666667E-02
              2.08333333E-01  2.91666667E-01  4.16666667E-02
              2.91666667E-01  2.91666667E-01  4.16666667E-02
              3.75000000E-01  2.91666667E-01  4.16666667E-02
              4.58333333E-01  2.91666667E-01  4.16666667E-02
             -4.58333333E-01  2.91666667E-01  4.16666667E-02
             -3.75000000E-01  2.91666667E-01  4.16666667E-02
             -2.91666667E-01  2.91666667E-01  4.16666667E-02
             -2.08333333E-01  2.91666667E-01  4.16666667E-02
             -1.25000000E-01  2.91666667E-01  4.16666667E-02
             -4.16666667E-02  2.91666667E-01  4.16666667E-02
              4.16666667E-02  3.75000000E-01  4.16666667E-02
              1.25000000E-01  3.75000000E-01  4.16666667E-02
                outvar1 : prtvol=0, do not print more k-points.
   kptrlen    6.70323651E+01
    kptopt1        1
    kptopt2        2
  kptrlatt   12  0  0   0 12  0   0  0 12
P    mkmem1      216
P    mkmem2      864
P   mkqmem1      216
P   mkqmem2      864
P   mk1mem1      216
P   mk1mem2      864
     natom         6
     nband1    40
     nband2    40
    ndtset         2
     ngfft        20      30      30
      nkpt1      216
      nkpt2      864
      nqpt1        0
      nqpt2        1
     nstep        20
      nsym         4
     ntime        20
    ntypat         3
       occ1   2.000000  2.000000  2.000000  2.000000  2.000000  2.000000
              2.000000  2.000000  2.000000  2.000000  2.000000  2.000000
              2.000000  0.000000  0.000000  0.000000  0.000000  0.000000
              0.000000  0.000000  0.000000  0.000000  0.000000  0.000000
              0.000000  0.000000  0.000000  0.000000  0.000000  0.000000
              0.000000  0.000000  0.000000  0.000000  0.000000  0.000000
              0.000000  0.000000  0.000000  0.000000
       occ2   2.000000  2.000000  2.000000  2.000000  2.000000  2.000000
              2.000000  2.000000  2.000000  2.000000  2.000000  2.000000
              2.000000  0.000000  0.000000  0.000000  0.000000  0.000000
              0.000000  0.000000  0.000000  0.000000  0.000000  0.000000
              0.000000  0.000000  0.000000  0.000000  0.000000  0.000000
              0.000000  0.000000  0.000000  0.000000  0.000000  0.000000
              0.000000  0.000000  0.000000  0.000000
 optdriver1        0
 optdriver2        1
   rfatpol1        1       1
   rfatpol2        1       6
     rfdir1        0       0       0
     rfdir2        1       1       1
    rfphon1        0
    rfphon2        1
    rfstrs1        0
    rfstrs2        3
    shiftk    5.00000000E-01  5.00000000E-01  5.00000000E-01
   spgroup        17
    strten1  -3.8748907961E-04 -1.3993199661E-03 -2.6002467501E-03
              0.0000000000E+00  0.0000000000E+00  0.0000000000E+00
    strten2   0.0000000000E+00  0.0000000000E+00  0.0000000000E+00
              0.0000000000E+00  0.0000000000E+00  0.0000000000E+00
    symrel    1  0  0   0  1  0   0  0  1      -1  0  0   0 -1  0   0  0  1
              1  0  0   0 -1  0   0  0 -1      -1  0  0   0  1  0   0  0 -1
     tnons    0.0000000  0.0000000  0.0000000     0.0000000  0.0000000  0.5000000
              0.0000000  0.0000000  0.0000000     0.0000000  0.0000000  0.5000000
    tolvrs1   1.00000000E-18
    tolvrs2   1.00000000E-10
     typat    1  2  3  1  2  3
       wtk1     0.00463    0.00463    0.00463    0.00463    0.00463    0.00463
                0.00463    0.00463    0.00463    0.00463    0.00463    0.00463
                0.00463    0.00463    0.00463    0.00463    0.00463    0.00463
                0.00463    0.00463    0.00463    0.00463    0.00463    0.00463
                0.00463    0.00463    0.00463    0.00463    0.00463    0.00463
                0.00463    0.00463    0.00463    0.00463    0.00463    0.00463
                0.00463    0.00463    0.00463    0.00463    0.00463    0.00463
                0.00463    0.00463    0.00463    0.00463    0.00463    0.00463
                0.00463    0.00463
                outvar1 : prtvol=0, do not print more k-points.
       wtk2     0.00116    0.00116    0.00116    0.00116    0.00116    0.00116
                0.00116    0.00116    0.00116    0.00116    0.00116    0.00116
                0.00116    0.00116    0.00116    0.00116    0.00116    0.00116
                0.00116    0.00116    0.00116    0.00116    0.00116    0.00116
                0.00116    0.00116    0.00116    0.00116    0.00116    0.00116
                0.00116    0.00116    0.00116    0.00116    0.00116    0.00116
                0.00116    0.00116    0.00116    0.00116    0.00116    0.00116
                0.00116    0.00116    0.00116    0.00116    0.00116    0.00116
                0.00116    0.00116
                outvar1 : prtvol=0, do not print more k-points.
    xangst    1.2447254116E-16  9.3585800000E-01  1.0970000000E+00
              1.4780000000E+00  1.1357500000E+00  3.2910000000E+00
              0.0000000000E+00  0.0000000000E+00  0.0000000000E+00
              4.2237542614E-16  3.6071420000E+00  3.2910000000E+00
              1.4780000000E+00  3.4072500000E+00  1.0970000000E+00
              1.3433931701E-16  1.3433931701E-16  2.1940000000E+00
     xcart    2.3521901288E-16  1.7685153119E+00  2.0730295591E+00
              2.7930152127E+00  2.1462564465E+00  6.2190886774E+00
              0.0000000000E+00  0.0000000000E+00  0.0000000000E+00
              7.9817387733E-16  6.8165104740E+00  6.2190886774E+00
              2.7930152127E+00  6.4387693394E+00  2.0730295591E+00
              2.5386451698E-16  2.5386451698E-16  4.1460591182E+00
      xred    0.0000000000E+00  2.0600000000E-01  2.5000000000E-01
              5.0000000000E-01  2.5000000000E-01  7.5000000000E-01
              0.0000000000E+00  0.0000000000E+00  0.0000000000E+00
              0.0000000000E+00  7.9400000000E-01  7.5000000000E-01
              5.0000000000E-01  7.5000000000E-01  2.5000000000E-01
              0.0000000000E+00  0.0000000000E+00  5.0000000000E-01
     znucl     26.00000   22.00000    1.00000

- as well as % of the total time and number of calls

-                                                          (-1=no count)
- fourwf(pot)        29098.547  24.5  29091.065  24.5       38510638
- vtowfk3(contrib)   28628.624  24.1  28627.241  24.1             -1
- nonlop(apply)      23255.424  19.6  23260.119  19.6       31771438
- projbd             18465.028  15.6  18476.725  15.6       65352963
- nonlop(forces)      5221.938   4.4   5216.867   4.4       11772000
- fourwf(G->r)        2239.341   1.9   2236.876   1.9        6570720
- vtorho3-kpt loop    1918.993   1.6   1918.959   1.6            300
- cgwf3-O(npw)        1907.902   1.6   1904.088   1.6             -1
- rwwf                1551.026   1.3   1551.057   1.3          15336
- getghc-other         683.503   0.6    688.608   0.6             -1
- 56   others          772.061   0.7    771.958   0.7

- subtotal          113742.387  95.9 113743.563  95.9

 Calculation completed.
.Delivered   66 WARNINGs and   0 COMMENTs to log file.