.Version 7.10.4 of ABINIT

 ABINIT is a project of the Universite Catholique de Louvain,
 Corning Inc. and other collaborators, see ~abinit/doc/developers/contributors.txt .
 Please read ~abinit/doc/users/acknowledgments.html for suggested
 acknowledgments of the ABINIT effort.

.Starting date : Mon 27 Apr 2015.
- ( at 10h59 )

 === Build Information ===
  Version       : 7.10.4
  Build target  : x86_64_linux_gnu4.4
  Build date    : 20150424

 === Optimizations ===
  Debug level        : basic
  Optimization level : standard
  Architecture       : intel_xeon

 === Multicore ===
  Parallel build : yes
  Parallel I/O   : yes
  openMP support : yes
  GPU support    : yes

 === Connectors / Fallbacks ===
  Connectors on : yes
  Fallbacks on  : yes
  FFT flavor    : fftw3
  LINALG flavor : netlib
  MATH flavor   : none
  TIMER flavor  : abinit
  TRIO flavor   : none

 === Experimental features ===
  Bindings            : @enable_bindings@
  Exports             : no
  GW double-precision : yes

 Default optimizations:
   -O2 -mtune=native -march=native

 CPP options activated during the build:

                    CC_GNU                   CXX_GNU                    FC_GNU

        HAVE_DFT_WANNIER90 HAVE_FC_ALLOCATABLE_DT...  HAVE_FC_COMMAND_ARGUMENT

           HAVE_FC_CPUTIME              HAVE_FC_EXIT             HAVE_FC_FLUSH

             HAVE_FC_GAMMA            HAVE_FC_GETENV          HAVE_FC_INT_QUAD

             HAVE_FC_IOMSG     HAVE_FC_ISO_C_BINDING        HAVE_FC_LONG_LINES

        HAVE_FC_MOVE_ALLOC           HAVE_FC_PRIVATE         HAVE_FC_PROTECTED

         HAVE_FC_STREAM_IO            HAVE_FC_SYSTEM                  HAVE_FFT

            HAVE_FFT_FFTW3              HAVE_FFT_MPI           HAVE_FFT_SERIAL

          HAVE_FORTRAN2003                  HAVE_GPU             HAVE_GPU_CUDA

          HAVE_GPU_CUDA_DP           HAVE_GPU_SERIAL               HAVE_GW_DPC

        HAVE_LIBPAW_ABINIT               HAVE_LINALG           HAVE_LINALG_MPI

        HAVE_LINALG_SERIAL                  HAVE_MPI                 HAVE_MPI2

       HAVE_MPI_IALLREDUCE        HAVE_MPI_IALLTOALL       HAVE_MPI_IALLTOALLV

               HAVE_MPI_IO HAVE_MPI_TYPE_CREATE_S...                HAVE_NUMPY

         HAVE_OMP_COLLAPSE               HAVE_OPENMP             HAVE_OS_LINUX

                HAVE_TIMER         HAVE_TIMER_ABINIT            HAVE_TIMER_MPI

         HAVE_TIMER_SERIAL              USE_MACROAVE

- input  file    -> tmbt_1.in
- output file    -> tmbt_1.outA
- root for input  files -> tmbt_1i
- root for output files -> tmbt_1o

-instrng :    79 lines of input have been read from file tmbt_1.in

 iofn2 : Please give name of formatted atomic psp file
 iofn2 : for atom type   1 , psp file is 14si.pspnc

 iofn2 : Please give name of formatted atomic psp file
 iofn2 : for atom type   2 , psp file is 8o.pspnc
  read the values zionpsp=  4.0 , pspcod=   1 , lmax=   2
nproj =      1     1     0     0
nprojso =      0     0     0
  read the values zionpsp=  6.0 , pspcod=   1 , lmax=   1
nproj =      1     0     0     0
nprojso =      0     0     0

 inpspheads: deduce mpsang  =   3, n1xccc  =2501.

 invars1m : enter jdtset=1
 invars1 : treat image number     1

 symlatt : the Bravais lattice is hP (primitive hexagonal)
  xred   is defined in input file
 ingeo : takes atomic coordinates from input array xred

 symlatt : the Bravais lattice is hP (primitive hexagonal)

 symlatt : the Bravais lattice is hP (primitive hexagonal)
 symspgr : spgroup= 154  P3_2 2 1   (=D3^6)
       Simple Lattice Grid

 invars1m : enter jdtset=2
 invars1 : treat image number     1

 symlatt : the Bravais lattice is hP (primitive hexagonal)
  xred   is defined in input file
 ingeo : takes atomic coordinates from input array xred

 symlatt : the Bravais lattice is hP (primitive hexagonal)

 symlatt : the Bravais lattice is hP (primitive hexagonal)
 symspgr : spgroup= 154  P3_2 2 1   (=D3^6)
       Simple Lattice Grid
       Simple Lattice Grid
  dtset%nelect=   48.000000000000000
 chkneu : initialized the occupation numbers for occopt=    1
    spin-unpolarized case :
  2.00  2.00  2.00  2.00  2.00  2.00  2.00  2.00  2.00  2.00  2.00  2.00
  2.00  2.00  2.00  2.00  2.00  2.00  2.00  2.00  2.00  2.00  2.00  2.00
  0.00  0.00  0.00  0.00
       Simple Lattice Grid
  dtset%nelect=   48.000000000000000
 chkneu : initialized the occupation numbers for occopt=    1
    spin-unpolarized case :
  2.00  2.00  2.00  2.00  2.00  2.00  2.00  2.00  2.00  2.00  2.00  2.00
  2.00  2.00  2.00  2.00  2.00  2.00  2.00  2.00  2.00  2.00  2.00  2.00
  0.00  0.00  0.00  0.00  0.00  0.00  0.00  0.00  0.00  0.00  0.00  0.00
  0.00  0.00  0.00  0.00  0.00  0.00  0.00  0.00  0.00  0.00  0.00  0.00
  0.00  0.00  0.00  0.00  0.00  0.00  0.00  0.00  0.00  0.00  0.00  0.00
  0.00  0.00  0.00  0.00  0.00  0.00  0.00  0.00  0.00  0.00  0.00  0.00
  0.00  0.00  0.00  0.00  0.00  0.00  0.00  0.00  0.00  0.00  0.00  0.00
  0.00  0.00  0.00  0.00  0.00  0.00  0.00  0.00  0.00  0.00  0.00  0.00
  0.00  0.00  0.00  0.00  0.00  0.00  0.00  0.00  0.00  0.00  0.00  0.00
  0.00  0.00  0.00  0.00  0.00  0.00  0.00  0.00  0.00  0.00  0.00  0.00
  0.00  0.00  0.00  0.00  0.00  0.00  0.00  0.00  0.00  0.00  0.00  0.00
  0.00  0.00  0.00  0.00  0.00  0.00  0.00  0.00  0.00  0.00  0.00  0.00
  0.00  0.00  0.00  0.00  0.00  0.00  0.00  0.00  0.00  0.00  0.00  0.00
  0.00  0.00  0.00  0.00
npfft, npband, npspinor and npkpt:     1    1    1    4

--- !WARNING
message: |
    nkpt*nsppol (9) is not a multiple of nproc_kpt (4)
    The k-point parallelisation is not efficient.
src_file: distrb2.F90
src_line: 113
...

mpi_setup: mkmem  undefined in the input file.Use default mkmem  = nkpt
 mpi_setup: With nkpt_me=3 and mkmem  = 9, ground state wf handled in core.
mpi_setup: mkqmem undefined in the input file.Use default mkqmem = nkpt
 mpi_setup: With nkpt_me=3 and mkqmem = 9, ground state wf handled in core.
mpi_setup: mk1mem undefined in the input file.Use default mk1mem = nkpt
 mpi_setup: With nkpt_me=3 and mk1mem = 9, ground state wf handled in core.
 For input ecut=  2.400000E+01 best grid ngfft=      45      45      48
       max ecut=  2.724975E+01

 ==== FFT mesh ====
  FFT mesh divisions ........................    45   45   48
  Augmented FFT divisions ...................    45   45   48
  FFT algorithm .............................   312
  FFT cache size ............................    16
 getmpw: optimal value of mpw=    4304
npfft, npband, npspinor and npkpt:     1    1    1    4

--- !WARNING
message: |
    nkpt*nsppol (9) is not a multiple of nproc_kpt (4)
    The k-point parallelisation is not efficient.
src_file: distrb2.F90
src_line: 113
...

mpi_setup: mkmem  undefined in the input file.Use default mkmem  = nkpt
 mpi_setup: With nkpt_me=3 and mkmem  = 9, ground state wf handled in core.
mpi_setup: mkqmem undefined in the input file.Use default mkqmem = nkpt
 mpi_setup: With nkpt_me=3 and mkqmem = 9, ground state wf handled in core.
mpi_setup: mk1mem undefined in the input file.Use default mk1mem = nkpt
 mpi_setup: With nkpt_me=3 and mk1mem = 9, ground state wf handled in core.
 For input ecut=  2.400000E+01 best grid ngfft=      45      45      48
       max ecut=  2.724975E+01

 ==== FFT mesh ====
  FFT mesh divisions ........................    45   45   48
  Augmented FFT divisions ...................    45   45   48
  FFT algorithm .............................   312
  FFT cache size ............................    16
 getmpw: optimal value of mpw=    4304

 DATASET    1 : space group P3_2 2 1 (#154); Bravais hP (primitive hexag.)

 getdim_nloc : deduce lmnmax  =   4, lnmax  =   2,
                      lmnmaxso=   4, lnmaxso=   2.
   intxc =         0  ionmov =         0    iscf =         7 xclevel =         1
_ lmnmax =         4   lnmax =         2   mband =        28  mffmem =         1
P  mgfft =        48   mkmem =         3 mpssoang=         3     mpw =      4304
  mqgrid =      3001   natom =         9    nfft =     97200    nkpt =         9
  nloalg =         4  nspden =         1 nspinor =         1  nsppol =         1
    nsym =         6  n1xccc =      2501  ntypat =         2  occopt =         1
  Rough estimation (10% accuracy) of disk space for files :

 The job will continue.

 DATASET    2 : space group P3_2 2 1 (#154); Bravais hP (primitive hexag.)

 getdim_nloc : deduce lmnmax  =   4, lnmax  =   2,
                      lmnmaxso=   4, lnmaxso=   2.
   intxc =         0  ionmov =         0    iscf =        -2 xclevel =         1
_ lmnmax =         4   lnmax =         2   mband =       160  mffmem =         1
P  mgfft =        48   mkmem =         3 mpssoang=         3     mpw =      4304
  mqgrid =      3001   natom =         9    nfft =     97200    nkpt =         9
  nloalg =         4  nspden =         1 nspinor =         1  nsppol =         1
    nsym =         6  n1xccc =      2501  ntypat =         2  occopt =         1
  Rough estimation (10% accuracy) of disk space for files :

 The job will continue.
------------- Echo of variables that govern the present computation ------------
-
- outvars: echo of selected default values
-   accesswff0 =  0 , fftalg0 =312 , wfoptalg0 =  0
-
- outvars: echo of global parameters not present in the input file
-  max_nthreads =   20
-
 -outvars: echo values of preprocessed input variables --------
            acell      9.2843000799E+00  9.2843000799E+00  1.0213270550E+01 Bohr
              amu      2.80855000E+01  1.59994000E+01
           diemac      4.00000000E+00
             ecut      2.40000000E+01 Hartree
-          fftalg         312
           getden1          0
           getden2         -1
             iscf1          7
             iscf2         -2
           istwfk        1    0    1    0    0    0    0    0    0
           jdtset        1    2
              kpt      0.00000000E+00  0.00000000E+00  0.00000000E+00
                       2.50000000E-01  0.00000000E+00  0.00000000E+00
                       5.00000000E-01  0.00000000E+00  0.00000000E+00
                       2.50000000E-01  2.50000000E-01  0.00000000E+00
                       0.00000000E+00  0.00000000E+00  3.33333333E-01
                       2.50000000E-01  0.00000000E+00  3.33333333E-01
                       5.00000000E-01  0.00000000E+00  3.33333333E-01
                      -2.50000000E-01  0.00000000E+00  3.33333333E-01
                       2.50000000E-01  2.50000000E-01  3.33333333E-01
         kptrlatt        4    0    0      0    4    0      0    0    3
          kptrlen      3.06398116E+01
          kssform1          1
          kssform2          3
P           mkmem           3
            natom           9
            nband1         28
            nband2        160
         nbandkss1          0
         nbandkss2        150
           nbdbuf1          0
           nbdbuf2         10
           ndtset           2
            ngfft          45      45      48
             nkpt           9
            nstep         200
             nsym           6
           ntypat           2
              occ      2.000000  2.000000  2.000000  2.000000  2.000000  2.000000
[...]
   6  9  4  7  5  8
   7  4  9  6  8  5
   8  5  7  4  9  6
   9  6  8  5  7  4
 ioarr: writing density data
ioarr: file name is tmbt_1o_DS1_DEN
ioarr: data written to disk file tmbt_1o_DS1_DEN

 ----iterations are completed or convergence reached----

 outwf: write wavefunction to file tmbt_1o_DS1_WFK, with accesswff -1

 === Gap info ===
  >>>> For spin  1
   Minimum optical gap =   5.9799 [eV], located at k-point      :   0.0000  0.0000  0.0000
   Fundamental gap     =   5.7134 [eV], Top of valence bands at :   0.2500  0.2500  0.0000
                                        Bottom of conduction at :   0.0000  0.0000  0.0000

 Cartesian components of stress tensor (hartree/bohr^3)
  sigma(1 1)=  1.26669013E-03  sigma(3 2)=  0.00000000E+00
  sigma(2 2)=  1.26669013E-03  sigma(3 1)=  0.00000000E+00
  sigma(3 3)=  1.21849340E-03  sigma(2 1)=  0.00000000E+00

-Cartesian components of stress tensor (GPa)         [Pressure= -3.6795E+01 GPa]
- sigma(1 1)=  3.72673040E+01  sigma(3 2)=  0.00000000E+00
- sigma(2 2)=  3.72673040E+01  sigma(3 1)=  0.00000000E+00
- sigma(3 3)=  3.58493074E+01  sigma(2 1)=  0.00000000E+00

== DATASET  2 ==================================================================
-   nproc =    4

 mkfilename : getden/=0, take file _DEN from output of DATASET   1.

 getdim_nloc : deduce lmnmax  =   4, lnmax  =   2,
                      lmnmaxso=   4, lnmaxso=   2.
 Exchange-correlation functional for the present dataset will be:
  LDA: new Teter (4/93) with spin-polarized option - ixc=1
 Citation for XC functional:
  S. Goedecker, M. Teter, J. Huetter, PRB 54, 1703 (1996)

 Unit cell volume ucvol=  7.6241917E+02 bohr^3
 Angles (23,13,12)=  9.00000000E+01  9.00000000E+01  1.20000000E+02 degrees

 getcut: wavevector=  0.0000  0.0000  0.0000  ngfft=  45  45  48
         ecut(hartree)=     24.000   => boxcut(ratio)=   2.13111
 kpgio: loop on k-points done in parallel
   1  1  3  2  2  3
   2  3  1  1  3  2
   3  2  2  3  1  1
   4  7  5  8  6  9
   5  8  6  9  4  7
   6  9  4  7  5  8
   7  4  9  6  8  5
   8  5  7  4  9  6
   9  6  8  5  7  4
 wfconv:   160 bands initialized randomly with npw=  4301, for ikpt=     1
 wfconv:   160 bands initialized randomly with npw=  4278, for ikpt=     2
 wfconv:   160 bands initialized randomly with npw=  4304, for ikpt=     3

 ioarr: reading density data
ioarr: file name is tmbt_1o_DS1_DEN

          - hdr_check: checking restart file header for consistency -

        current calculation                         restart file

  calculation expects a density         |  input file contains a density
. ABINIT  code version 7.10.4           |  ABINIT  code version 7.10.4
. date 20150427 bantot 1440 natom    9  |  date 20150427 bantot  252 natom    9
  nkpt   9 nsym  6 ngfft  45,  45,  48  |  nkpt   9 nsym  6 ngfft  45,  45,  48
  ntypat  2 ecut_eff  24.0000000        |  ntypat  2 ecut_eff  24.0000000
  usepaw  0                             |  usepaw  0
  usewvl  0                             |  usewvl  0
  rprimd:                               |  rprimd:
     4.6421500  -8.0404397   0.0000000  |     4.6421500  -8.0404397   0.0000000
     4.6421500   8.0404397   0.0000000  |     4.6421500   8.0404397   0.0000000
     0.0000000   0.0000000  10.2132705  |     0.0000000   0.0000000  10.2132705
  nband:                                |  nband:
   160 160 160 160 160 160 160 160 160  |    28  28  28  28  28  28  28  28  28
  symafm:                               |  symafm:
    1  1  1  1  1  1                    |    1  1  1  1  1  1
  symrel:                               |  symrel:
    1  0  0  0  1  0  0  0  1           |    1  0  0  0  1  0  0  0  1
    1  0  0 -1 -1  0  0  0 -1           |    1  0  0 -1 -1  0  0  0 -1
    0  1  0 -1 -1  0  0  0  1           |    0  1  0 -1 -1  0  0  0  1
    0  1  0  1  0  0  0  0 -1           |    0  1  0  1  0  0  0  0 -1
   -1 -1  0  1  0  0  0  0  1           |   -1 -1  0  1  0  0  0  0  1
   -1 -1  0  0  1  0  0  0 -1           |   -1 -1  0  0  1  0  0  0 -1
  typat:                                |  typat:
    1  1  1  2  2  2  2  2  2           |    1  1  1  2  2  2  2  2  2
  so_psp  :                             |  so_psp  :
    1  1                                |    1  1
  istwfk:                               |  istwfk:
    1  1  1  1  1  1  1  1  1           |    1  1  1  1  1  1  1  1  1
  kpt:                                  |  kpt:
     0.0000000   0.0000000   0.0000000  |     0.0000000   0.0000000   0.0000000
     0.2500000   0.0000000   0.0000000  |     0.2500000   0.0000000   0.0000000
     0.5000000   0.0000000   0.0000000  |     0.5000000   0.0000000   0.0000000
     0.2500000   0.2500000   0.0000000  |     0.2500000   0.2500000   0.0000000
     0.0000000   0.0000000   0.3333333  |     0.0000000   0.0000000   0.3333333
  wtk:                                  |  wtk:
    0.021  0.125  0.063  0.125  0.042   |    0.021  0.125  0.063  0.125  0.042
  tnons:                                |  tnons:
     0.0000000   0.0000000   0.0000000  |     0.0000000   0.0000000   0.0000000
     0.0000000   0.0000000   0.0000000  |     0.0000000   0.0000000   0.0000000
     0.0000000   0.0000000  -0.3333333  |     0.0000000   0.0000000  -0.3333333
     0.0000000   0.0000000  -0.3333333  |     0.0000000   0.0000000  -0.3333333
     0.0000000   0.0000000   0.3333333  |     0.0000000   0.0000000   0.3333333
     0.0000000   0.0000000   0.3333333  |     0.0000000   0.0000000   0.3333333
   znucl:                               |   znucl:
   14.00  8.00                          |   14.00  8.00
  pseudopotential atom type  1:         |  pseudopotential atom type  1:
  pspso   0 pspxc   1                   |  pspso   0 pspxc   1
  pspdat 940714 pspcod    1 zion   4.0  |  pspdat 940714 pspcod    1 zion   4.0
  pseudopotential atom type  2:         |  pseudopotential atom type  2:
  pspso   0 pspxc   1                   |  pspso   0 pspxc   1
  pspdat 940714 pspcod    1 zion   6.0  |  pspdat 940714 pspcod    1 zion   6.0
  xred:                                 |  xred:
     0.4650000   0.0000000   0.0000000  |     0.4650000   0.0000000   0.0000000
     0.0000000   0.4650000   0.6666667  |     0.0000000   0.4650000   0.6666667
    -0.4650000  -0.4650000   0.3333333  |    -0.4650000  -0.4650000   0.3333333
     0.4150000   0.2720000   0.1200000  |     0.4150000   0.2720000   0.1200000
    -0.1430000  -0.4150000   0.4533333  |    -0.1430000  -0.4150000   0.4533333
    -0.2720000   0.1430000   0.7866667  |    -0.2720000   0.1430000   0.7866667
     0.1430000  -0.2720000  -0.1200000  |     0.1430000  -0.2720000  -0.1200000
     0.2720000   0.4150000   0.5466667  |     0.2720000   0.4150000   0.5466667
    -0.4150000  -0.1430000   0.2133333  |    -0.4150000  -0.1430000   0.2133333
 hdr_check:  Density/Potential file is OK for restart of calculation
ioarr: data read from disk file tmbt_1o_DS1_DEN

 getcut: wavevector=  0.0000  0.0000  0.0000  ngfft=  45  45  48
         ecut(hartree)=     24.000   => boxcut(ratio)=   2.13111
 vtorho : nnsclo_now=200, note that nnsclo,dbl_nnsclo,istep=  0 0  1
   1  1  3  2  2  3
   2  3  1  1  3  2
   3  2  2  3  1  1
   4  7  5  8  6  9
   5  8  6  9  4  7
   6  9  4  7  5  8
   7  4  9  6  8  5
   8  5  7  4  9  6
   9  6  8  5  7  4
 ioarr: writing density data
ioarr: file name is tmbt_1o_DS2_DEN
ioarr: data written to disk file tmbt_1o_DS2_DEN

 Calculating and writing out Kohn-Sham electronic Structure file
 Using conjugate gradient wavefunctions and energies (kssform=3)

--- !WARNING
message: |
    The present version of outkss does not work with useylm/=0 !
     Program does not stop but _KSS file will not be created...
src_file: outkss.F90
src_line: 347
...

 outkss: Not allowed options found !
 Program does not stop but _KSS file will not be created...

--- !WARNING
message: |
    outkss returned a non zero status error, check log
src_file: outscfcv.F90
src_line: 1073
...

 ----iterations are completed or convergence reached----

 outwf: write wavefunction to file tmbt_1o_DS2_WFK, with accesswff -1

== END DATASET(S) ==============================================================

 -outvars: echo values of variables after computation  --------
            acell      9.2843000799E+00  9.2843000799E+00  1.0213270550E+01 Bohr
              amu      2.80855000E+01  1.59994000E+01
           diemac      4.00000000E+00
             ecut      2.40000000E+01 Hartree
           etotal1    -1.1317576756E+02
            fcart1    -9.0942069443E+00  1.5751628482E+01  7.4973142209E-29
                      -9.0942069443E+00 -1.5751628482E+01 -0.0000000000E+00
                       1.8188413889E+01  1.4210854715E-14 -0.0000000000E+00
                       1.2953992804E+02 -2.7604338050E+02  1.5883509662E+02
                      -3.0383054408E+02  2.5836821765E+01  1.5883509662E+02
                       1.7429061604E+02  2.5020655874E+02  1.5883509662E+02
                       1.7429061604E+02 -2.5020655874E+02 -1.5883509662E+02
                       1.2953992804E+02  2.7604338050E+02 -1.5883509662E+02
                      -3.0383054408E+02 -2.5836821765E+01 -1.5883509662E+02
-          fftalg         312
           getden1          0
           getden2         -1
             iscf1          7
             iscf2         -2
           istwfk        1    0    1    0    0    0    0    0    0
           jdtset        1    2
              kpt      0.00000000E+00  0.00000000E+00  0.00000000E+00
                       2.50000000E-01  0.00000000E+00  0.00000000E+00
                       5.00000000E-01  0.00000000E+00  0.00000000E+00
                       2.50000000E-01  2.50000000E-01  0.00000000E+00
                       0.00000000E+00  0.00000000E+00  3.33333333E-01
                       2.50000000E-01  0.00000000E+00  3.33333333E-01
                       5.00000000E-01  0.00000000E+00  3.33333333E-01
                      -2.50000000E-01  0.00000000E+00  3.33333333E-01
                       2.50000000E-01  2.50000000E-01  3.33333333E-01
         kptrlatt        4    0    0      0    4    0      0    0    3
          kptrlen      3.06398116E+01
          kssform1          1
          kssform2          3
P           mkmem           3
            natom           9
            nband1         28
            nband2        160
         nbandkss1          0
         nbandkss2        150
           nbdbuf1          0
           nbdbuf2         10
           ndtset           2
            ngfft          45      45      48
             nkpt           9
            nstep         200
             nsym           6
           ntypat           2
              occ      2.000000  2.000000  2.000000  2.000000  2.000000  2.000000
                       2.000000  2.000000  2.000000  2.000000  2.000000  2.000000
                       2.000000  2.000000  2.000000  2.000000  2.000000  2.000000
                       2.000000  2.000000  2.000000  2.000000  2.000000  2.000000
                       0.000000  0.000000  0.000000  0.000000
            rprim      5.0000000000E-01 -8.6602540378E-01  0.0000000000E+00
                       5.0000000000E-01  8.6602540378E-01  0.0000000000E+00
                       0.0000000000E+00  0.0000000000E+00  1.0000000000E+00
          spgroup         154
           strten1     1.2666901304E-03  1.2666901304E-03  1.2184933974E-03
                       0.0000000000E+00  0.0000000000E+00  0.0000000000E+00
           symrel      1  0  0   0  1  0   0  0  1       1  0  0  -1 -1  0   0  0 -1
                       0  1  0  -1 -1  0   0  0  1       0  1  0   1  0  0   0  0 -1
                      -1 -1  0   1  0  0   0  0  1      -1 -1  0   0  1  0   0  0 -1
            tnons      0.0000000  0.0000000  0.0000000     0.0000000  0.0000000  0.0000000
                       0.0000000  0.0000000 -0.3333333     0.0000000  0.0000000 -0.3333333
                       0.0000000  0.0000000  0.3333333     0.0000000  0.0000000  0.3333333
           tolvrs1     1.00000000E-08
           tolvrs2     0.00000000E+00
           tolwfr1     0.00000000E+00
           tolwfr2     1.00000000E-12
            typat      1  1  1  2  2  2  2  2  2
-          useylm           1
-    use_gpu_cuda           1
              wtk        0.02083    0.12500    0.06250    0.12500    0.04167    0.12500
                         0.12500    0.12500    0.25000
           xangst      1.1422818000E+00 -1.9784901142E+00  0.0000000000E+00
                       1.1422818000E+00  1.9784901142E+00  3.6030866667E+00
                      -2.2845636000E+00  0.0000000000E+00  1.8015433333E+00
                       1.6876292400E+00 -6.0843889532E-01  6.4855560000E-01
                      -1.3707381600E+00 -1.1573103463E+00  2.4500989333E+00
                      -3.1689108000E-01  1.7657492417E+00  4.2516422667E+00
                      -3.1689108000E-01 -1.7657492417E+00 -6.4855560000E-01
                       1.6876292400E+00  6.0843889532E-01  2.9545310667E+00
                      -1.3707381600E+00  1.1573103463E+00  1.1529877333E+00
            xcart      2.1585997686E+00 -3.7388044724E+00  0.0000000000E+00
                       2.1585997686E+00  3.7388044724E+00  6.8088470331E+00
                      -4.3171995372E+00  0.0000000000E+00  3.4044235165E+00
                       3.1891570774E+00 -1.1497828807E+00  1.2255924659E+00
                      -2.5903197223E+00 -2.1869996053E+00  4.6300159825E+00
                      -5.9883735515E-01  3.3367824861E+00  8.0344394990E+00
                      -5.9883735515E-01 -3.3367824861E+00 -1.2255924659E+00
                       3.1891570774E+00  1.1497828807E+00  5.5832545671E+00
                      -2.5903197223E+00  2.1869996053E+00  2.1788310506E+00
             xred      4.6500000000E-01  0.0000000000E+00  0.0000000000E+00
                       0.0000000000E+00  4.6500000000E-01  6.6666666667E-01
                      -4.6500000000E-01 -4.6500000000E-01  3.3333333333E-01
                       4.1500000000E-01  2.7200000000E-01  1.2000000000E-01
                      -1.4300000000E-01 -4.1500000000E-01  4.5333333333E-01
                      -2.7200000000E-01  1.4300000000E-01  7.8666666667E-01
                       1.4300000000E-01 -2.7200000000E-01 -1.2000000000E-01
                       2.7200000000E-01  4.1500000000E-01  5.4666666667E-01
                      -4.1500000000E-01 -1.4300000000E-01  2.1333333333E-01
            znucl       14.00000    8.00000

 Suggested references for the acknowledgment of ABINIT usage.

 [1] ABINIT : First-principles approach of materials and nanosystem properties.
 X. Gonze, B. Amadon, P.-M. Anglade, J.-M. Beuken, F. Bottin, P. Boulanger, F. Bruneval,
 D. Caliste, R. Caracas, M. Cote, T. Deutsch, L. Genovese, Ph. Ghosez, M. Giantomassi
 S. Goedecker, D.R. Hamann, P. Hermet, F. Jollet, G. Jomard, S. Leroux, M. Mancini, S. Mazevet,
 M.J.T. Oliveira, G. Onida, Y. Pouillon, T. Rangel, G.-M. Rignanese, D. Sangalli, R. Shaltaf,
 M. Torrent, M.J. Verstraete, G. Zerah, J.W. Zwanziger
 Computer Phys. Comm. 180, 2582-2615 (2009).
 Comment : the third generic paper describing the ABINIT project.
 Note that a version of this paper, that is not formatted for Computer Phys. Comm.
 The licence allows the authors to put it on the Web.

 [2] A brief introduction to the ABINIT software package.
 X. Gonze, G.-M. Rignanese, M. Verstraete, J.-M. Beuken, Y. Pouillon, R. Caracas, F. Jollet,
 M. Torrent, G. Zerah, M. Mikami, Ph. Ghosez, M. Veithen, J.-Y. Raty, V. Olevano, F. Bruneval,
 L. Reining, R. Godby, G. Onida, D.R. Hamann, and D.C. Allan.
 Z. Kristallogr. 220, 558-562 (2005).
 Comment : the second generic paper describing the ABINIT project. Note that this paper
 should be cited especially if you are using the GW part of ABINIT, as several authors
 of this part are not in the list of authors of the first or third paper.
 Note that it should not redistributed (Copyright by Oldenburg Wissenshaftverlag,
 the licence allows the authors to put it on the Web).

 And optionally :

 [3] First-principles computation of material properties : the ABINIT software project.
 X. Gonze, J.-M. Beuken, R. Caracas, F. Detraux, M. Fuchs, G.-M. Rignanese, L. Sindic,
 M. Verstraete, G. Zerah, F. Jollet, M. Torrent, A. Roy, M. Mikami, Ph. Ghosez, J.-Y. Raty, D.C. Allan.
 Comment : the original paper describing the ABINIT project.

 [4] Fast radix 2, 3, 4 and 5 kernels for Fast Fourier Transformations
 on computers with overlapping multiply-add instructions.
 S. Goedecker, SIAM J. on Scientific Computing 18, 1605 (1997).

 Calculation completed.
.Delivered    0 WARNINGs and   0 COMMENTs to log file.
--- !FinalSummary
start_date: Mon Apr 27 10:59:21 2015
end_date: Tue Apr 28  0:45:43 2015
overall_cpu_time:      989725.6
overall_wall_time:      198327.1
...