.Version 7.10.4 of ABINIT

 ABINIT is a project of the Universite Catholique de Louvain,
 Corning Inc. and other collaborators, see ~abinit/doc/developers/contributors.txt .
 Please read ~abinit/doc/users/acknowledgments.html for suggested
 acknowledgments of the ABINIT effort.

.Starting date : Mon 29 Feb 2016.
- ( at 08h40 )

 === Build Information ===
  Version       : 7.10.4
  Build target  : x86_64_linux_gnu4.8
  Build date    : 20160223

 === Optimizations ===
  Debug level        : basic
  Optimization level : standard
  Architecture       : unknown_unknown

 === Multicore ===
  Parallel build : yes
  Parallel I/O   : auto
  openMP support : yes
  GPU support    : no

 === Connectors / Fallbacks ===
  Connectors on : yes
  Fallbacks on  : yes
  FFT flavor    : none
  LINALG flavor : netlib
  MATH flavor   : none
  TIMER flavor  : abinit
  TRIO flavor   : netcdf+fox-fallback

 === Experimental features ===
  Bindings            : @enable_bindings@
  Exports             : no
  GW double-precision : no

 Default optimizations:
   -O2 -mtune=native -march=native

 CPP options activated during the build:

                    CC_GNU                   CXX_GNU                    FC_GNU

        HAVE_DFT_WANNIER90 HAVE_FC_ALLOCATABLE_DT...             HAVE_FC_ASYNC

         HAVE_FC_BACKTRACE  HAVE_FC_COMMAND_ARGUMENT      HAVE_FC_COMMAND_LINE

        HAVE_FC_CONTIGUOUS           HAVE_FC_CPUTIME              HAVE_FC_EXIT

             HAVE_FC_FLUSH             HAVE_FC_GAMMA            HAVE_FC_GETENV

          HAVE_FC_INT_QUAD             HAVE_FC_IOMSG     HAVE_FC_ISO_C_BINDING

        HAVE_FC_LONG_LINES        HAVE_FC_MOVE_ALLOC           HAVE_FC_PRIVATE

         HAVE_FC_PROTECTED         HAVE_FC_STREAM_IO            HAVE_FC_SYSTEM

          HAVE_FORTRAN2003        HAVE_LIBPAW_ABINIT               HAVE_LINALG

        HAVE_LINALG_SERIAL                  HAVE_MPI                 HAVE_MPI2

               HAVE_MPI_IO HAVE_MPI_TYPE_CREATE_S...                HAVE_NUMPY

         HAVE_OMP_COLLAPSE               HAVE_OPENMP             HAVE_OS_LINUX

                HAVE_TIMER         HAVE_TIMER_ABINIT            HAVE_TIMER_MPI

         HAVE_TIMER_SERIAL             HAVE_TRIO_FOX          HAVE_TRIO_NETCDF

              USE_MACROAVE

- input  file    -> al2o3.opt.lda.in
- output file    -> al2o3.opt.lda.out
- root for input  files -> al2o3.opt.lda_xi
- root for output files -> al2o3.opt.lda_xo

-instrng :   142 lines of input have been read from file al2o3.opt.lda.in

 iofn2 : Please give name of formatted atomic psp file
 iofn2 : for atom type   1 , psp file is 13al.pspnc

 iofn2 : Please give name of formatted atomic psp file
 iofn2 : for atom type   2 , psp file is 8o.pspnc
  read the values zionpsp=  3.0 , pspcod=   1 , lmax=   2
nproj =      1     1     0     0
nprojso =      0     0     0
  read the values zionpsp=  6.0 , pspcod=   1 , lmax=   1
nproj =      1     0     0     0
nprojso =      0     0     0

 inpspheads: deduce mpsang  =   3, n1xccc  =2501.

 invars1m : enter jdtset=1
 invars1 : treat image number     1
 ingeo : use angdeg to generate rprim.

 symlatt : the Bravais lattice is hP (primitive hexagonal)
  xred   is defined in input file
 ingeo : takes atomic coordinates from input array xred
  Describe the different generators (index,symrel,tnons,symafm)
  1    1  0  0  0  1  0  0  0  1    0.00E+00    0.00E+00    0.00E+00  1
  2   -1 -1  0  1  0  0  0  0  1    0.00E+00    0.00E+00    0.00E+00  1
  3    0 -1  0 -1  0  0  0  0  1    0.00E+00    0.00E+00    5.00E-01  1
  added one more symmetry : nogen_new=           4
  added one more symmetry : nogen_new=           5
  added one more symmetry : nogen_new=           6

 symlatt : the Bravais lattice is hP (primitive hexagonal)

--- !COMMENT
message: |
    According to the symmetry finder, the unit cell is
    not primitive, with multiplicity=3.
    This is allowed, as the input variable chkprim is 0.
src_file: chkprimit.F90
src_line: 106
...

       Simple Lattice Grid

 invars1m : enter jdtset=2
 invars1 : treat image number     1
 ingeo : use angdeg to generate rprim.

 symlatt : the Bravais lattice is hP (primitive hexagonal)
  xred   is defined in input file
 ingeo : takes atomic coordinates from input array xred
  Describe the different generators (index,symrel,tnons,symafm)
  1    1  0  0  0  1  0  0  0  1    0.00E+00    0.00E+00    0.00E+00  1
  2   -1 -1  0  1  0  0  0  0  1    0.00E+00    0.00E+00    0.00E+00  1
  3    0 -1  0 -1  0  0  0  0  1    0.00E+00    0.00E+00    5.00E-01  1
  added one more symmetry : nogen_new=           4
  added one more symmetry : nogen_new=           5
  added one more symmetry : nogen_new=           6

 symlatt : the Bravais lattice is hP (primitive hexagonal)

--- !COMMENT
message: |
    According to the symmetry finder, the unit cell is
    not primitive, with multiplicity=3.
    This is allowed, as the input variable chkprim is 0.
src_file: chkprimit.F90
src_line: 106
...

       Simple Lattice Grid
       Simple Lattice Grid
  dtset%nelect=   144.00000000000000
 chkneu : initialized the occupation numbers for occopt=    1
    spin-unpolarized case :
  2.00  2.00  2.00  2.00  2.00  2.00  2.00  2.00  2.00  2.00  2.00  2.00
  2.00  2.00  2.00  2.00  2.00  2.00  2.00  2.00  2.00  2.00  2.00  2.00
  2.00  2.00  2.00  2.00  2.00  2.00  2.00  2.00  2.00  2.00  2.00  2.00
  2.00  2.00  2.00  2.00  2.00  2.00  2.00  2.00  2.00  2.00  2.00  2.00
  2.00  2.00  2.00  2.00  2.00  2.00  2.00  2.00  2.00  2.00  2.00  2.00
  2.00  2.00  2.00  2.00  2.00  2.00  2.00  2.00  2.00  2.00  2.00  2.00
  0.00  0.00  0.00  0.00  0.00  0.00  0.00  0.00
       Simple Lattice Grid
  dtset%nelect=   144.00000000000000
 chkneu : initialized the occupation numbers for occopt=    1
    spin-unpolarized case :
  2.00  2.00  2.00  2.00  2.00  2.00  2.00  2.00  2.00  2.00  2.00  2.00
  2.00  2.00  2.00  2.00  2.00  2.00  2.00  2.00  2.00  2.00  2.00  2.00
  2.00  2.00  2.00  2.00  2.00  2.00  2.00  2.00  2.00  2.00  2.00  2.00
  2.00  2.00  2.00  2.00  2.00  2.00  2.00  2.00  2.00  2.00  2.00  2.00
  2.00  2.00  2.00  2.00  2.00  2.00  2.00  2.00  2.00  2.00  2.00  2.00
  2.00  2.00  2.00  2.00  2.00  2.00  2.00  2.00  2.00  2.00  2.00  2.00
  0.00  0.00  0.00  0.00  0.00  0.00  0.00  0.00
mpi_setup: mkmem  undefined in the input file.Use default mkmem  = nkpt
 mpi_setup: With nkpt_me=2 and mkmem  = 2, ground state wf handled in core.
mpi_setup: mkqmem undefined in the input file.Use default mkqmem = nkpt
 mpi_setup: With nkpt_me=2 and mkqmem = 2, ground state wf handled in core.
mpi_setup: mk1mem undefined in the input file.Use default mk1mem = nkpt
 mpi_setup: With nkpt_me=2 and mk1mem = 2, ground state wf handled in core.
 For input ecut=  1.500000E+01 best grid ngfft=      32      32      90
       max ecut=  1.527129E+01

 ==== FFT mesh ====
  FFT mesh divisions ........................    32   32   90
  Augmented FFT divisions ...................    33   33   90
  FFT algorithm .............................   112
  FFT cache size ............................    16
 getmpw: optimal value of mpw=    4936
mpi_setup: mkmem  undefined in the input file.Use default mkmem  = nkpt
 mpi_setup: With nkpt_me=2 and mkmem  = 2, ground state wf handled in core.
mpi_setup: mkqmem undefined in the input file.Use default mkqmem = nkpt
 mpi_setup: With nkpt_me=2 and mkqmem = 2, ground state wf handled in core.
mpi_setup: mk1mem undefined in the input file.Use default mk1mem = nkpt
 mpi_setup: With nkpt_me=2 and mk1mem = 2, ground state wf handled in core.
 For input ecut=  1.653750E+01 best grid ngfft=      36      36      96
       max ecut=  1.846540E+01

 ==== FFT mesh ====
  FFT mesh divisions ........................    36   36   96
  Augmented FFT divisions ...................    37   37   96
  FFT algorithm .............................   112
  FFT cache size ............................    16
 getmpw: optimal value of mpw=    5703

 DATASET    1 : the unit cell is not primitive

 getdim_nloc : deduce lmnmax  =   4, lnmax  =   2,
                      lmnmaxso=   4, lnmaxso=   2.
   intxc =         0  ionmov =         2    iscf =         7 xclevel =         1
  lmnmax =         2   lnmax =         2   mband =        80  mffmem =         1
P  mgfft =        90   mkmem =         2 mpssoang=         3     mpw =      4936
  mqgrid =      4327   natom =        30    nfft =     92160    nkpt =         2
  nloalg =         4  nspden =         1 nspinor =         1  nsppol =         1
    nsym =        36  n1xccc =      2501  ntypat =         2  occopt =         1
  Rough estimation (10% accuracy) of disk space for files :

 The job will continue.

 DATASET    2 : the unit cell is not primitive

 getdim_nloc : deduce lmnmax  =   4, lnmax  =   2,
                      lmnmaxso=   4, lnmaxso=   2.
   intxc =         0  ionmov =         2    iscf =         7 xclevel =         1
  lmnmax =         2   lnmax =         2   mband =        80  mffmem =         1
P  mgfft =        96   mkmem =         2 mpssoang=         3     mpw =      5703
  mqgrid =      4543   natom =        30    nfft =    124416    nkpt =         2
  nloalg =         4  nspden =         1 nspinor =         1  nsppol =         1
    nsym =        36  n1xccc =      2501  ntypat =         2  occopt =         1
  Rough estimation (10% accuracy) of disk space for files :

 The job will continue.
------------- Echo of variables that govern the present computation ------------
-
- outvars: echo of selected default values
-   accesswff0 =  0 , fftalg0 =112 , wfoptalg0 =  0
-
- outvars: echo of global parameters not present in the input file
-  max_nthreads =    4
-
 -outvars: echo values of preprocessed input variables --------

 These variables are accessible in NetCDF format (al2o3.opt.lda_xo_OUT.nc)

            acell      9.0953000000E+00  9.0953000000E+00  2.4814000000E+01 Bohr
              amu      2.69815390E+01  1.59994000E+01
          dilatmx1     1.00000000E+00
          dilatmx2     1.05000000E+00
             ecut      1.50000000E+01 Hartree
           ecutsm      5.00000000E-01 Hartree
-          fftalg         112
           getwfk1          0
           getwfk2         -1
          getxred1          0
          getxred2         -1
           ionmov           2
           jdtset        1    2
              kpt      0.00000000E+00  0.00000000E+00  2.50000000E-01
                       5.00000000E-01  0.00000000E+00  2.50000000E-01
         kptrlatt        2    0    0      0    2    0      0    0    2
          kptrlen      1.81906000E+01
P           mkmem           2
            natom          30
            nband          80
           ndtset           2
            ngfft1         32      32      90
            ngfft2         36      36      96
             nkpt           2
            nstep          50
             nsym          36
            ntime          20
           ntypat           2
              occ      2.000000  2.000000  2.000000  2.000000  2.000000  2.000000
                       2.000000  2.000000  2.000000  2.000000  2.000000  2.000000
                       2.000000  2.000000  2.000000  2.000000  2.000000  2.000000
[...]
                       0.3333333 -0.3333333  0.1666667     0.3333333 -0.3333333 -0.3333333
                       0.3333333 -0.3333333  0.1666667     0.3333333 -0.3333333  0.1666667
           tolmxf      1.00000000E-08
           tolvrs      1.00000000E-20
            typat      1  2  2  1  2  2  2  2  1  1  1  2  2  1  2  2  2  2  1  1
                       1  2  2  1  2  2  2  2  1  1
              wtk        0.25000    0.75000
           xangst1     2.3807848732E-16  4.1236401049E-16  4.6141180649E+00
                       1.5020028102E+00  2.7093030965E-16  3.2827508135E+00
                       1.6555113276E+00  2.8674297318E+00  3.2827508135E+00
                       6.4009951494E-16  1.1086848560E-15  1.1179619692E+01
                      -1.6555113276E+00  2.8674297318E+00  9.8482524405E+00
                      -7.5100140509E-01  1.3007725902E+00  3.2827508135E+00
                       3.3110226551E+00  1.0068549918E-15  9.8482524405E+00
                       7.5100140509E-01  1.3007725902E+00  9.8482524405E+00
                       4.7705085777E-16  8.2627629771E-16  8.5168851890E+00
                       7.5029830160E-17  1.2995545218E-16  1.9513835621E+00
                       2.4065127326E+00  1.3894007740E+00  8.9911191496E+00
                       3.9085155428E+00  1.3894007740E+00  7.6597518981E+00
                       1.6555113276E+00  8.8628183833E-02  7.6597518981E+00
                       2.4065127326E+00  1.3894007740E+00  2.4256175226E+00
                       3.1575141377E+00  8.8628183833E-02  1.0942502712E+00
                       1.6555113276E+00  2.6901733642E+00  7.6597518981E+00
                       9.0450992247E-01  1.3894007740E+00  1.0942502712E+00
                       3.1575141377E+00  2.6901733642E+00  1.0942502712E+00
                       2.4065127326E+00  1.3894007740E+00  1.2893886274E+01
                       2.4065127326E+00  1.3894007740E+00  6.3283846467E+00
                       1.6595324466E-15  2.7788015480E+00  2.3711698026E-01
                       1.5020028102E+00  2.7788015480E+00  1.2036752983E+01
                      -7.5100140509E-01  1.4780289578E+00  1.2036752983E+01
                       2.0615534742E-15  2.7788015480E+00  6.8026186072E+00
                       7.5100140509E-01  1.4780289578E+00  5.4712513558E+00
                      -7.5100140509E-01  4.0795741382E+00  1.2036752983E+01
                      -1.5020028102E+00  2.7788015480E+00  5.4712513558E+00
                       7.5100140509E-01  4.0795741382E+00  5.4712513558E+00
                       1.8985080099E-15  2.7788015480E+00  4.1398841044E+00
                       2.3005290375E-15  2.7788015480E+00  1.0705385731E+01
           xangst2     2.4585370580E-16  4.2583116733E-16  4.7404547884E+00
                       1.5024953104E+00  2.8921956605E-16  3.3818684559E+00
                       1.6491039923E+00  2.8563319017E+00  3.3818684559E+00
                       6.6001314377E-16  1.1431763563E-15  1.1504191700E+01
                      -1.6491039923E+00  2.8563319017E+00  1.0145605368E+01
                      -7.5124765521E-01  1.3011991079E+00  3.3818684559E+00
                       3.2982079846E+00  1.0746212264E-15  1.0145605368E+01
                       7.5124765521E-01  1.3011991079E+00  1.0145605368E+01
                       4.9363434249E-16  8.5499981921E-16  8.7870190351E+00
                       7.9474904532E-17  1.3765463023E-16  2.0232821233E+00
                       2.4003516475E+00  1.3858436699E+00  9.2496127296E+00
                       3.9028469579E+00  1.3858436699E+00  7.8910263970E+00
                       1.6491039923E+00  8.4644561963E-02  7.8910263970E+00
                       2.4003516475E+00  1.3858436699E+00  2.4858758178E+00
                       3.1515993027E+00  8.4644561963E-02  1.1272894853E+00
                       1.6491039923E+00  2.6870427777E+00  7.8910263970E+00
                       8.9785633711E-01  1.3858436699E+00  1.1272894853E+00
                       3.1515993027E+00  2.6870427777E+00  1.1272894853E+00
                       2.4003516475E+00  1.3858436699E+00  1.3296176976E+01
                       2.4003516475E+00  1.3858436699E+00  6.5324400645E+00
                       9.5417040092E-16  2.7716873397E+00  2.3129684726E-01
                       1.5024953104E+00  2.7716873397E+00  1.2400184338E+01
                      -7.5124765521E-01  1.4704882318E+00  1.2400184338E+01
                       1.3683298389E-15  2.7716873397E+00  6.9950337590E+00
                       7.5124765521E-01  1.4704882318E+00  5.6364474264E+00
                      -7.5124765521E-01  4.0728864476E+00  1.2400184338E+01
                      -1.5024953104E+00  2.7716873397E+00  5.6364474264E+00
                       7.5124765521E-01  4.0728864476E+00  5.6364474264E+00
                       1.2019509985E-15  2.7716873397E+00  4.2778610939E+00
                       1.6161104365E-15  2.7716873397E+00  1.1041598006E+01
            xcart1     4.4990313917E-16  7.7925504688E-16  8.7194194875E+00
                       2.8383739621E+00  5.1198408634E-16  6.2035000000E+00
                       3.1284630190E+00  5.4186568985E+00  6.2035000000E+00
                       1.2096127810E-15  2.0951107456E-15  2.1126419487E+01
                      -3.1284630190E+00  5.4186568985E+00  1.8610500000E+01
                      -1.4191869810E+00  2.4581039566E+00  6.2035000000E+00
                       6.2569260379E+00  1.9026801901E-15  1.8610500000E+01
                       1.4191869810E+00  2.4581039566E+00  1.8610500000E+01
                       9.0149547265E-16  1.5614359128E-15  1.6094580513E+01
                       1.4178583080E-16  2.4558021409E-16  3.6875805125E+00
                       4.5476500000E+00  2.6255869517E+00  1.6990752821E+01
                       7.3860239621E+00  2.6255869517E+00  1.4474833333E+01
                       3.1284630190E+00  1.6748299510E-01  1.4474833333E+01
                       4.5476500000E+00  2.6255869517E+00  4.5837528208E+00
                       5.9668369810E+00  1.6748299510E-01  2.0678333333E+00
                       3.1284630190E+00  5.0836909083E+00  1.4474833333E+01
                       1.7092760379E+00  2.6255869517E+00  2.0678333333E+00
                       5.9668369810E+00  5.0836909083E+00  2.0678333333E+00
                       4.5476500000E+00  2.6255869517E+00  2.4365913846E+01
                       4.5476500000E+00  2.6255869517E+00  1.1958913846E+01
                       3.1360618327E-15  5.2511739034E+00  4.4808615415E-01
                       2.8383739621E+00  5.2511739034E+00  2.2746166667E+01
                      -1.4191869810E+00  2.7930699468E+00  2.2746166667E+01
                       3.8957714745E-15  5.2511739034E+00  1.2855086154E+01
                       1.4191869810E+00  2.7930699468E+00  1.0339166667E+01
                      -1.4191869810E+00  7.7092778599E+00  2.2746166667E+01
                      -2.8383739621E+00  5.2511739034E+00  1.0339166667E+01
                       1.4191869810E+00  7.7092778599E+00  1.0339166667E+01
                       3.5876601998E-15  5.2511739034E+00  7.8232471792E+00
                       4.3473698416E-15  5.2511739034E+00  2.0230247179E+01
            xcart2     4.6459617272E-16  8.0470428510E-16  8.9581612954E+00
                       2.8393046526E+00  5.4654577210E-16  6.3908051990E+00
                       3.1163549101E+00  5.3976850388E+00  6.3908051990E+00
                       1.2472440858E-15  2.1602902350E-15  2.1739771694E+01
                      -3.1163549101E+00  5.3976850388E+00  1.9172415597E+01
                      -1.4196523263E+00  2.4589099583E+00  6.3908051990E+00
                       6.2327098203E+00  2.0307398144E-15  1.9172415597E+01
                       1.4196523263E+00  2.4589099583E+00  1.9172415597E+01
                       9.3283371710E-16  1.6157155020E-15  1.6605059501E+01
                       1.5018580400E-16  2.6012955205E-16  3.8234491026E+00
                       4.5360072365E+00  2.6188649990E+00  1.7479234894E+01
                       7.3753118891E+00  2.6188649990E+00  1.4911878798E+01
                       3.1163549101E+00  1.5995504075E-01  1.4911878798E+01
                       4.5360072365E+00  2.6188649990E+00  4.6976244961E+00
                       5.9556595628E+00  1.5995504075E-01  2.1302683997E+00
                       3.1163549101E+00  5.0777749573E+00  1.4911878798E+01
                       1.6967025838E+00  2.6188649990E+00  2.1302683997E+00
                       5.9556595628E+00  5.0777749573E+00  2.1302683997E+00
                       4.5360072365E+00  2.6188649990E+00  2.5126133099E+01
                       4.5360072365E+00  2.6188649990E+00  1.2344522701E+01
                       1.8031207418E-15  5.2377299980E+00  4.3708769672E-01
                       2.8393046526E+00  5.2377299980E+00  2.3432952396E+01
                      -1.4196523263E+00  2.7788200398E+00  2.3432952396E+01
                       2.5857686549E-15  5.2377299980E+00  1.3218698095E+01
                       1.4196523263E+00  2.7788200398E+00  1.0651341998E+01
                      -1.4196523263E+00  7.6966399563E+00  2.3432952396E+01
                      -2.8393046526E+00  5.2377299980E+00  1.0651341998E+01
                       1.4196523263E+00  7.6966399563E+00  1.0651341998E+01
                       2.2713582124E-15  5.2377299980E+00  8.0839859020E+00
                       3.0540061255E-15  5.2377299980E+00  2.0865596300E+01
             xred1    -1.8472690986E-17 -1.8472694074E-17  3.5139112950E-01
                       3.1207040582E-01 -1.8528398372E-17  2.5000000000E-01
                       6.8792959418E-01  6.8792959418E-01  2.5000000000E-01
                      -1.8472690986E-17 -1.8472694074E-17  8.5139112950E-01
                      -9.0273720664E-18  6.8792959418E-01  7.5000000000E-01
                      -1.8527616743E-17  3.1207040582E-01  2.5000000000E-01
                       6.8792959418E-01 -9.0269793952E-18  7.5000000000E-01
                       3.1207040582E-01  3.1207040582E-01  7.5000000000E-01
                      -1.8474017747E-17 -1.8474020835E-17  6.4860887050E-01
                      -1.8474017747E-17 -1.8474020835E-17  1.4860887050E-01
                       6.6666666667E-01  3.3333333333E-01  6.8472446284E-01
                       9.7873707249E-01  3.3333333333E-01  5.8333333333E-01
                       3.5459626085E-01  2.1262927513E-02  5.8333333333E-01
                       6.6666666667E-01  3.3333333333E-01  1.8472446284E-01
                       6.6666666667E-01  2.1262927513E-02  8.3333333333E-02
                       6.6666666667E-01  6.4540373915E-01  5.8333333333E-01
                       3.5459626085E-01  3.3333333333E-01  8.3333333333E-02
                       9.7873707249E-01  6.4540373915E-01  8.3333333333E-02
                       6.6666666667E-01  3.3333333333E-01  9.8194220383E-01
                       6.6666666667E-01  3.3333333333E-01  4.8194220383E-01
                       3.3333333333E-01  6.6666666667E-01  1.8057796170E-02
                       6.4540373915E-01  6.6666666667E-01  9.1666666667E-01
                       2.1262927513E-02  3.5459626085E-01  9.1666666667E-01
                       3.3333333333E-01  6.6666666667E-01  5.1805779617E-01
                       3.3333333333E-01  3.5459626085E-01  4.1666666667E-01
                       3.3333333333E-01  9.7873707249E-01  9.1666666667E-01
                       2.1262927513E-02  6.6666666667E-01  4.1666666667E-01
                       6.4540373915E-01  9.7873707249E-01  4.1666666667E-01
                       3.3333333333E-01  6.6666666667E-01  3.1527553716E-01
                       3.3333333333E-01  6.6666666667E-01  8.1527553716E-01
             xred2    -1.8503712469E-17 -1.8503705536E-17  3.5043163641E-01
                       3.1297399945E-01 -1.6705354280E-17  2.5000000000E-01
                       6.8702600055E-01  6.8702600055E-01  2.5000000000E-01
                      -1.8503712469E-17 -1.8503705536E-17  8.5043163641E-01
                      -3.3533285163E-19  6.8702600055E-01  7.5000000000E-01
                      -1.6705853629E-17  3.1297399945E-01  2.5000000000E-01
                       6.8702600055E-01 -3.3591020893E-19  7.5000000000E-01
                       3.1297399945E-01  3.1297399945E-01  7.5000000000E-01
                      -1.8503696188E-17 -1.8503689255E-17  6.4956836359E-01
                      -1.8503696188E-17 -1.8503689255E-17  1.4956836359E-01
                       6.6666666667E-01  3.3333333333E-01  6.8376496974E-01
                       9.7964066611E-01  3.3333333333E-01  5.8333333333E-01
                       3.5369266722E-01  2.0359333886E-02  5.8333333333E-01
                       6.6666666667E-01  3.3333333333E-01  1.8376496974E-01
                       6.6666666667E-01  2.0359333886E-02  8.3333333333E-02
                       6.6666666667E-01  6.4630733278E-01  5.8333333333E-01
                       3.5369266722E-01  3.3333333333E-01  8.3333333333E-02
                       9.7964066611E-01  6.4630733278E-01  8.3333333333E-02
                       6.6666666667E-01  3.3333333333E-01  9.8290169693E-01
                       6.6666666667E-01  3.3333333333E-01  4.8290169693E-01
                       3.3333333333E-01  6.6666666667E-01  1.7098303074E-02
                       6.4630733278E-01  6.6666666667E-01  9.1666666667E-01
                       2.0359333886E-02  3.5369266722E-01  9.1666666667E-01
                       3.3333333333E-01  6.6666666667E-01  5.1709830307E-01
                       3.3333333333E-01  3.5369266722E-01  4.1666666667E-01
                       3.3333333333E-01  9.7964066611E-01  9.1666666667E-01
                       2.0359333886E-02  6.6666666667E-01  4.1666666667E-01
                       6.4630733278E-01  9.7964066611E-01  4.1666666667E-01
                       3.3333333333E-01  6.6666666667E-01  3.1623503026E-01
                       3.3333333333E-01  6.6666666667E-01  8.1623503026E-01
            znucl       13.00000    8.00000

 Suggested references for the acknowledgment of ABINIT usage.

 [1] ABINIT : First-principles approach of materials and nanosystem properties.
 X. Gonze, B. Amadon, P.-M. Anglade, J.-M. Beuken, F. Bottin, P. Boulanger, F. Bruneval,
 D. Caliste, R. Caracas, M. Cote, T. Deutsch, L. Genovese, Ph. Ghosez, M. Giantomassi
 S. Goedecker, D.R. Hamann, P. Hermet, F. Jollet, G. Jomard, S. Leroux, M. Mancini, S. Mazevet,
 M.J.T. Oliveira, G. Onida, Y. Pouillon, T. Rangel, G.-M. Rignanese, D. Sangalli, R. Shaltaf,
 M. Torrent, M.J. Verstraete, G. Zerah, J.W. Zwanziger
 Computer Phys. Comm. 180, 2582-2615 (2009).
 Comment : the third generic paper describing the ABINIT project.
 Note that a version of this paper, that is not formatted for Computer Phys. Comm.
 The licence allows the authors to put it on the Web.

 [2] A brief introduction to the ABINIT software package.
 X. Gonze, G.-M. Rignanese, M. Verstraete, J.-M. Beuken, Y. Pouillon, R. Caracas, F. Jollet,
 M. Torrent, G. Zerah, M. Mikami, Ph. Ghosez, M. Veithen, J.-Y. Raty, V. Olevano, F. Bruneval,
 L. Reining, R. Godby, G. Onida, D.R. Hamann, and D.C. Allan.
 Z. Kristallogr. 220, 558-562 (2005).
 Comment : the second generic paper describing the ABINIT project. Note that this paper
 should be cited especially if you are using the GW part of ABINIT, as several authors
 of this part are not in the list of authors of the first or third paper.
 Note that it should not redistributed (Copyright by Oldenburg Wissenshaftverlag,
 the licence allows the authors to put it on the Web).

 And optionally :

 [3] First-principles computation of material properties : the ABINIT software project.
 X. Gonze, J.-M. Beuken, R. Caracas, F. Detraux, M. Fuchs, G.-M. Rignanese, L. Sindic,
 M. Verstraete, G. Zerah, F. Jollet, M. Torrent, A. Roy, M. Mikami, Ph. Ghosez, J.-Y. Raty, D.C. Allan.
 Comment : the original paper describing the ABINIT project.

 [4] Fast radix 2, 3, 4 and 5 kernels for Fast Fourier Transformations
 on computers with overlapping multiply-add instructions.
 S. Goedecker, SIAM J. on Scientific Computing 18, 1605 (1997).

 Calculation completed.
.Delivered    2 WARNINGs and   3 COMMENTs to log file.
--- !FinalSummary
start_date: Mon Feb 29  8:40:10 2016
end_date: Mon Feb 29  9:50:54 2016
overall_cpu_time:       13166.8
overall_wall_time:        4243.9
...
   Tot. No. of Allocations             :  0
   Tot. No. of Deallocations           :  0
     Peak Value (MB)                   :  0
     for the array                     :                                     
     in the routine                    :                                     