.Version 8.0.8 of ABINIT

 ABINIT is a project of the Universite Catholique de Louvain,
 Corning Inc. and other collaborators, see ~abinit/doc/developers/contributors.txt .
 Please read ~abinit/doc/users/acknowledgments.html for suggested
 acknowledgments of the ABINIT effort.

.Starting date : Wed 13 Sep 2017.
- ( at 19h10 )

 === Build Information ===
  Version       : 8.0.8
  Build target  : x86_64_linux_gnu4.9
  Build date    : 20161123

 === Optimizations ===
  Debug level        : basic
  Optimization level : standard
  Architecture       : intel_xeon

 === Multicore ===
  Parallel build : yes
  Parallel I/O   : yes
  openMP support : yes
  GPU support    : no

 === Connectors / Fallbacks ===
  Connectors on : yes
  Fallbacks on  : yes
  FFT flavor    : dfti
  LINALG flavor : mkl
  MATH flavor   : gsl
  TIMER flavor  : abinit
  TRIO flavor   : netcdf-fallback+etsf_io-fallback

 === Experimental features ===
  Bindings            : @enable_bindings@
  Exports             : no
  GW double-precision : no

 Default optimizations:
   -O2 -mtune=native -march=native

 Optimizations for 20_datashare:
   -O0

 CPP options activated during the build:

                    CC_GNU                   CXX_GNU                    FC_GNU

        HAVE_DFT_WANNIER90 HAVE_FC_ALLOCATABLE_DT...             HAVE_FC_ASYNC

         HAVE_FC_BACKTRACE  HAVE_FC_COMMAND_ARGUMENT      HAVE_FC_COMMAND_LINE

        HAVE_FC_CONTIGUOUS           HAVE_FC_CPUTIME              HAVE_FC_EXIT

             HAVE_FC_FLUSH             HAVE_FC_GAMMA            HAVE_FC_GETENV

          HAVE_FC_INT_QUAD             HAVE_FC_IOMSG     HAVE_FC_ISO_C_BINDING

  HAVE_FC_ISO_FORTRAN_2008        HAVE_FC_LONG_LINES        HAVE_FC_MOVE_ALLOC

           HAVE_FC_PRIVATE         HAVE_FC_PROTECTED         HAVE_FC_STREAM_IO

            HAVE_FC_SYSTEM                  HAVE_FFT             HAVE_FFT_DFTI

              HAVE_FFT_MPI           HAVE_FFT_SERIAL          HAVE_FORTRAN2003

        HAVE_LIBPAW_ABINIT      HAVE_LIBTETRA_ABINIT               HAVE_LINALG

         HAVE_LINALG_AXPBY        HAVE_LINALG_GEMM3M  HAVE_LINALG_MKL_IMATCOPY

   HAVE_LINALG_MKL_OMATADD  HAVE_LINALG_MKL_OMATCOPY        HAVE_LINALG_SERIAL

                 HAVE_MATH             HAVE_MATH_GSL          HAVE_MATH_SERIAL

                  HAVE_MPI                 HAVE_MPI2         HAVE_MPI2_INPLACE

       HAVE_MPI_IALLREDUCE        HAVE_MPI_IALLTOALL       HAVE_MPI_IALLTOALLV

        HAVE_MPI_INTEGER16               HAVE_MPI_IO HAVE_MPI_TYPE_CREATE_S...

       HAVE_NETCDF_DEFAULT         HAVE_OMP_COLLAPSE               HAVE_OPENMP

             HAVE_OS_LINUX                HAVE_TIMER         HAVE_TIMER_ABINIT

            HAVE_TIMER_MPI         HAVE_TIMER_SERIAL         HAVE_TRIO_ETSF_IO

          HAVE_TRIO_NETCDF              USE_MACROAVE

- input  file    -> LAO.in
- output file    -> LAO2.out
- root for input  files -> LAO_i
- root for output files -> LAO_o

-instrng: 117 lines of input have been read from file LAO.in

  status : statnu, output_rate, shift_rate=           1           0           1
 level,routine=           3 init istatr
 active(level)=           1
 counter,actual_counter(level,1:2)=           0           0           0
 List of active levels :
  Active level number=           3

 Please give name of formatted atomic psp file
 iofn2 : for atom type 1, psp file is ../../paw/La.LDA_PW-JTH.xml

 Please give name of formatted atomic psp file
 iofn2 : for atom type 2, psp file is ../../paw/smallcore/O.LDA-PW-paw.abinit

 Please give name of formatted atomic psp file
 iofn2 : for atom type 3, psp file is ../../paw/smallcore/Al.LDA-PW-paw.abinit
- inpspheads : Reading pseudopotential header in XML form from ../../paw/La.LDA_PW-JTH.xml
  read the values zionpsp=  6.0 , pspcod=   7 , lmax=   1
 3  1.0041739817                     : shape_type,rshape
  read the values zionpsp= 11.0 , pspcod=   7 , lmax=   1
 3  1.3996102782                     : shape_type,rshape

 inpspheads: deduce mpsang = 4, n1xccc = 1.

 invars1m : enter jdtset= 0
 invars1 : treat image number: 1

 symlatt : the Bravais lattice is cP (primitive cubic)
  xred   is defined in input file
 ingeo : takes atomic coordinates from input array xred

 symlatt : the Bravais lattice is cP (primitive cubic)

 symlatt : the Bravais lattice is cP (primitive cubic)
 symspgr : spgroup= 221  Pm -3 m   (=Oh^1)
 ingeo : angdeg(1:3)=   90.00000000   90.00000000   90.00000000
 inkpts: Sum of   64 k point weights is   64.000000
 With present occopt=1 , renormalize it to one
 invars2: take the default value of fband=  5.00000000E-01
 inkpts: Sum of   64 k point weights is   64.000000
 With present occopt=3 , renormalize it to one

 invars2 : Printing the k point grid (values of kptns - max 100 of them)
 nkpt=      64
     ikpt istwfk    wtk       --------- reduced coordinates ---------  --------- cartesian coordinates ---------
       1     1  1.562500E-02  0.000000E+00  0.000000E+00  0.000000E+00  0.000000E+00  0.000000E+00  0.000000E+00
       2     1  1.562500E-02  0.000000E+00  0.000000E+00  2.500000E-01  0.000000E+00  0.000000E+00  3.454159E-02
       3     1  1.562500E-02  0.000000E+00  0.000000E+00  5.000000E-01  0.000000E+00  0.000000E+00  6.908319E-02
       4     1  1.562500E-02  0.000000E+00  0.000000E+00  7.500000E-01  0.000000E+00  0.000000E+00  1.036248E-01
       5     1  1.562500E-02  0.000000E+00  2.500000E-01  0.000000E+00  0.000000E+00  3.454159E-02  0.000000E+00
       6     1  1.562500E-02  0.000000E+00  2.500000E-01  2.500000E-01  0.000000E+00  3.454159E-02  3.454159E-02
       7     1  1.562500E-02  0.000000E+00  2.500000E-01  5.000000E-01  0.000000E+00  3.454159E-02  6.908319E-02
       8     1  1.562500E-02  0.000000E+00  2.500000E-01  7.500000E-01  0.000000E+00  3.454159E-02  1.036248E-01
       9     1  1.562500E-02  0.000000E+00  5.000000E-01  0.000000E+00  0.000000E+00  6.908319E-02  0.000000E+00
      10     1  1.562500E-02  0.000000E+00  5.000000E-01  2.500000E-01  0.000000E+00  6.908319E-02  3.454159E-02
      11     1  1.562500E-02  0.000000E+00  5.000000E-01  5.000000E-01  0.000000E+00  6.908319E-02  6.908319E-02
      12     1  1.562500E-02  0.000000E+00  5.000000E-01  7.500000E-01  0.000000E+00  6.908319E-02  1.036248E-01
      13     1  1.562500E-02  0.000000E+00  7.500000E-01  0.000000E+00  0.000000E+00  1.036248E-01  0.000000E+00
      14     1  1.562500E-02  0.000000E+00  7.500000E-01  2.500000E-01  0.000000E+00  1.036248E-01  3.454159E-02
      15     1  1.562500E-02  0.000000E+00  7.500000E-01  5.000000E-01  0.000000E+00  1.036248E-01  6.908319E-02
      16     1  1.562500E-02  0.000000E+00  7.500000E-01  7.500000E-01  0.000000E+00  1.036248E-01  1.036248E-01
      17     1  1.562500E-02  2.500000E-01  0.000000E+00  0.000000E+00  3.454159E-02  0.000000E+00  0.000000E+00
      18     1  1.562500E-02  2.500000E-01  0.000000E+00  2.500000E-01  3.454159E-02  0.000000E+00  3.454159E-02
      19     1  1.562500E-02  2.500000E-01  0.000000E+00  5.000000E-01  3.454159E-02  0.000000E+00  6.908319E-02
      20     1  1.562500E-02  2.500000E-01  0.000000E+00  7.500000E-01  3.454159E-02  0.000000E+00  1.036248E-01
      21     1  1.562500E-02  2.500000E-01  2.500000E-01  0.000000E+00  3.454159E-02  3.454159E-02  0.000000E+00
      22     1  1.562500E-02  2.500000E-01  2.500000E-01  2.500000E-01  3.454159E-02  3.454159E-02  3.454159E-02
      23     1  1.562500E-02  2.500000E-01  2.500000E-01  5.000000E-01  3.454159E-02  3.454159E-02  6.908319E-02
      24     1  1.562500E-02  2.500000E-01  2.500000E-01  7.500000E-01  3.454159E-02  3.454159E-02  1.036248E-01
      25     1  1.562500E-02  2.500000E-01  5.000000E-01  0.000000E+00  3.454159E-02  6.908319E-02  0.000000E+00
      26     1  1.562500E-02  2.500000E-01  5.000000E-01  2.500000E-01  3.454159E-02  6.908319E-02  3.454159E-02
      27     1  1.562500E-02  2.500000E-01  5.000000E-01  5.000000E-01  3.454159E-02  6.908319E-02  6.908319E-02
      28     1  1.562500E-02  2.500000E-01  5.000000E-01  7.500000E-01  3.454159E-02  6.908319E-02  1.036248E-01
      29     1  1.562500E-02  2.500000E-01  7.500000E-01  0.000000E+00  3.454159E-02  1.036248E-01  0.000000E+00
      30     1  1.562500E-02  2.500000E-01  7.500000E-01  2.500000E-01  3.454159E-02  1.036248E-01  3.454159E-02
      31     1  1.562500E-02  2.500000E-01  7.500000E-01  5.000000E-01  3.454159E-02  1.036248E-01  6.908319E-02
      32     1  1.562500E-02  2.500000E-01  7.500000E-01  7.500000E-01  3.454159E-02  1.036248E-01  1.036248E-01
      33     1  1.562500E-02  5.000000E-01  0.000000E+00  0.000000E+00  6.908319E-02  0.000000E+00  0.000000E+00
      34     1  1.562500E-02  5.000000E-01  0.000000E+00  2.500000E-01  6.908319E-02  0.000000E+00  3.454159E-02
      35     1  1.562500E-02  5.000000E-01  0.000000E+00  5.000000E-01  6.908319E-02  0.000000E+00  6.908319E-02
      36     1  1.562500E-02  5.000000E-01  0.000000E+00  7.500000E-01  6.908319E-02  0.000000E+00  1.036248E-01
      37     1  1.562500E-02  5.000000E-01  2.500000E-01  0.000000E+00  6.908319E-02  3.454159E-02  0.000000E+00
      38     1  1.562500E-02  5.000000E-01  2.500000E-01  2.500000E-01  6.908319E-02  3.454159E-02  3.454159E-02
      39     1  1.562500E-02  5.000000E-01  2.500000E-01  5.000000E-01  6.908319E-02  3.454159E-02  6.908319E-02
      40     1  1.562500E-02  5.000000E-01  2.500000E-01  7.500000E-01  6.908319E-02  3.454159E-02  1.036248E-01
      41     1  1.562500E-02  5.000000E-01  5.000000E-01  0.000000E+00  6.908319E-02  6.908319E-02  0.000000E+00
      42     1  1.562500E-02  5.000000E-01  5.000000E-01  2.500000E-01  6.908319E-02  6.908319E-02  3.454159E-02
      43     1  1.562500E-02  5.000000E-01  5.000000E-01  5.000000E-01  6.908319E-02  6.908319E-02  6.908319E-02
      44     1  1.562500E-02  5.000000E-01  5.000000E-01  7.500000E-01  6.908319E-02  6.908319E-02  1.036248E-01
      45     1  1.562500E-02  5.000000E-01  7.500000E-01  0.000000E+00  6.908319E-02  1.036248E-01  0.000000E+00
      46     1  1.562500E-02  5.000000E-01  7.500000E-01  2.500000E-01  6.908319E-02  1.036248E-01  3.454159E-02
      47     1  1.562500E-02  5.000000E-01  7.500000E-01  5.000000E-01  6.908319E-02  1.036248E-01  6.908319E-02
      48     1  1.562500E-02  5.000000E-01  7.500000E-01  7.500000E-01  6.908319E-02  1.036248E-01  1.036248E-01
      49     1  1.562500E-02  7.500000E-01  0.000000E+00  0.000000E+00  1.036248E-01  0.000000E+00  0.000000E+00
      50     1  1.562500E-02  7.500000E-01  0.000000E+00  2.500000E-01  1.036248E-01  0.000000E+00  3.454159E-02
      51     1  1.562500E-02  7.500000E-01  0.000000E+00  5.000000E-01  1.036248E-01  0.000000E+00  6.908319E-02
      52     1  1.562500E-02  7.500000E-01  0.000000E+00  7.500000E-01  1.036248E-01  0.000000E+00  1.036248E-01
      53     1  1.562500E-02  7.500000E-01  2.500000E-01  0.000000E+00  1.036248E-01  3.454159E-02  0.000000E+00
      54     1  1.562500E-02  7.500000E-01  2.500000E-01  2.500000E-01  1.036248E-01  3.454159E-02  3.454159E-02
      55     1  1.562500E-02  7.500000E-01  2.500000E-01  5.000000E-01  1.036248E-01  3.454159E-02  6.908319E-02
[...]

 -outvars: echo values of variables after computation  --------

 These variables are accessible in NetCDF format (LAO_o_OUT.nc)

            acell      7.2376510890E+00  7.2376510890E+00  7.2376510890E+00 Bohr
              amu      1.38905500E+02  1.59994000E+01  2.69815390E+01
             ecut      2.50000000E+01 Hartree
           etotal     -1.6275623776E+02
            fcart      9.9999999999E+99  9.9999999999E+99  9.9999999999E+99
                       9.9999999999E+99  9.9999999999E+99  9.9999999999E+99
                       9.9999999999E+99  9.9999999999E+99  9.9999999999E+99
                       9.9999999999E+99  9.9999999999E+99  9.9999999999E+99
                       9.9999999999E+99  9.9999999999E+99  9.9999999999E+99
-          fftalg         512
           istwfk        1    0    1    0    0    0    0    0    1    0
                         1    0    0    0    0    0    0    0    0    0
                         0    0    0    0    0    0    0    0    0    0
                         0    0    1    0    1    0    0    0    0    0
                         1    0    1    0    0    0    0    0    0    0
                       outvar_i_n : Printing only first  50 k-points.
              ixc       -1012
      ixcpositron          11
              kpt      0.00000000E+00  0.00000000E+00  0.00000000E+00
                       0.00000000E+00  0.00000000E+00  2.50000000E-01
                       0.00000000E+00  0.00000000E+00  5.00000000E-01
                       0.00000000E+00  0.00000000E+00  7.50000000E-01
                       0.00000000E+00  2.50000000E-01  0.00000000E+00
                       0.00000000E+00  2.50000000E-01  2.50000000E-01
                       0.00000000E+00  2.50000000E-01  5.00000000E-01
                       0.00000000E+00  2.50000000E-01  7.50000000E-01
                       0.00000000E+00  5.00000000E-01  0.00000000E+00
                       0.00000000E+00  5.00000000E-01  2.50000000E-01
                       0.00000000E+00  5.00000000E-01  5.00000000E-01
                       0.00000000E+00  5.00000000E-01  7.50000000E-01
                       0.00000000E+00  7.50000000E-01  0.00000000E+00
                       0.00000000E+00  7.50000000E-01  2.50000000E-01
                       0.00000000E+00  7.50000000E-01  5.00000000E-01
                       0.00000000E+00  7.50000000E-01  7.50000000E-01
                       2.50000000E-01  0.00000000E+00  0.00000000E+00
                       2.50000000E-01  0.00000000E+00  2.50000000E-01
                       2.50000000E-01  0.00000000E+00  5.00000000E-01
                       2.50000000E-01  0.00000000E+00  7.50000000E-01
                       2.50000000E-01  2.50000000E-01  0.00000000E+00
                       2.50000000E-01  2.50000000E-01  2.50000000E-01
                       2.50000000E-01  2.50000000E-01  5.00000000E-01
                       2.50000000E-01  2.50000000E-01  7.50000000E-01
                       2.50000000E-01  5.00000000E-01  0.00000000E+00
                       2.50000000E-01  5.00000000E-01  2.50000000E-01
                       2.50000000E-01  5.00000000E-01  5.00000000E-01
                       2.50000000E-01  5.00000000E-01  7.50000000E-01
                       2.50000000E-01  7.50000000E-01  0.00000000E+00
                       2.50000000E-01  7.50000000E-01  2.50000000E-01
                       2.50000000E-01  7.50000000E-01  5.00000000E-01
                       2.50000000E-01  7.50000000E-01  7.50000000E-01
                       5.00000000E-01  0.00000000E+00  0.00000000E+00
                       5.00000000E-01  0.00000000E+00  2.50000000E-01
                       5.00000000E-01  0.00000000E+00  5.00000000E-01
                       5.00000000E-01  0.00000000E+00  7.50000000E-01
                       5.00000000E-01  2.50000000E-01  0.00000000E+00
                       5.00000000E-01  2.50000000E-01  2.50000000E-01
                       5.00000000E-01  2.50000000E-01  5.00000000E-01
                       5.00000000E-01  2.50000000E-01  7.50000000E-01
                       5.00000000E-01  5.00000000E-01  0.00000000E+00
                       5.00000000E-01  5.00000000E-01  2.50000000E-01
                       5.00000000E-01  5.00000000E-01  5.00000000E-01
                       5.00000000E-01  5.00000000E-01  7.50000000E-01
                       5.00000000E-01  7.50000000E-01  0.00000000E+00
                       5.00000000E-01  7.50000000E-01  2.50000000E-01
                       5.00000000E-01  7.50000000E-01  5.00000000E-01
                       5.00000000E-01  7.50000000E-01  7.50000000E-01
                       7.50000000E-01  0.00000000E+00  0.00000000E+00
                       7.50000000E-01  0.00000000E+00  2.50000000E-01
                       outvar_i_n : Printing only first  50 k-points.
           kptopt           0
P           mkmem           2
            natom           5
            nband          23
            ngfft          36      36      36
          ngfftdg          40      40      40
             nkpt          64
            nstep         150
             nsym          48
           ntypat           3
              occ      2.000000  2.000000  2.000000  2.000000  2.000000  2.000000
                       2.000000  2.000000  2.000000  2.000000  2.000000  2.000000
                       2.000000  2.000000  1.999989  1.999989  1.999989  1.998710
                       1.998710  1.998710  0.013781  0.013781  0.000060
                       2.000000  2.000000  2.000000  2.000000  2.000000  2.000000
                       2.000000  2.000000  2.000000  2.000000  2.000000  2.000000
                       2.000000  2.000000  1.999999  1.999996  1.999996  1.999977
                       1.999685  1.999685  0.000832  0.000330  0.000087
                       2.000000  2.000000  2.000000  2.000000  2.000000  2.000000
                       2.000000  2.000000  2.000000  2.000000  2.000000  2.000000
                       2.000000  2.000000  2.000000  2.000000  1.999995  1.999995
                       1.999957  1.999957  0.000202  0.000113  0.000058
                       2.000000  2.000000  2.000000  2.000000  2.000000  2.000000
                       2.000000  2.000000  2.000000  2.000000  2.000000  2.000000
                       2.000000  2.000000  1.999999  1.999996  1.999996  1.999977
                       1.999685  1.999685  0.000832  0.000330  0.000087
                       2.000000  2.000000  2.000000  2.000000  2.000000  2.000000
                       2.000000  2.000000  2.000000  2.000000  2.000000  2.000000
                       2.000000  2.000000  1.999999  1.999996  1.999996  1.999977
                       1.999685  1.999685  0.000832  0.000330  0.000087
                       2.000000  2.000000  2.000000  2.000000  2.000000  2.000000
                       2.000000  2.000000  2.000000  2.000000  2.000000  2.000000
                       2.000000  2.000000  2.000000  1.999999  1.999998  1.999984
                       1.999950  1.999098  0.000293  0.000215  0.000081
                       2.000000  2.000000  2.000000  2.000000  2.000000  2.000000
                       2.000000  2.000000  2.000000  2.000000  2.000000  2.000000
                       2.000000  2.000000  2.000000  1.999999  1.999999  1.999996
                       1.999954  1.999785  0.000188  0.000108  0.000078
                       2.000000  2.000000  2.000000  2.000000  2.000000  2.000000
                       2.000000  2.000000  2.000000  2.000000  2.000000  2.000000
                       2.000000  2.000000  2.000000  1.999999  1.999998  1.999984
                       1.999950  1.999098  0.000293  0.000215  0.000081
                       2.000000  2.000000  2.000000  2.000000  2.000000  2.000000
                       2.000000  2.000000  2.000000  2.000000  2.000000  2.000000
                       2.000000  2.000000  2.000000  2.000000  1.999995  1.999995
                       1.999957  1.999957  0.000202  0.000113  0.000058
                       2.000000  2.000000  2.000000  2.000000  2.000000  2.000000
                       2.000000  2.000000  2.000000  2.000000  2.000000  2.000000
                       2.000000  2.000000  2.000000  1.999999  1.999999  1.999996
                       1.999954  1.999785  0.000188  0.000108  0.000078
                       2.000000  2.000000  2.000000  2.000000  2.000000  2.000000
                       2.000000  2.000000  2.000000  2.000000  2.000000  2.000000
                       2.000000  2.000000  2.000000  2.000000  1.999987  1.999985
                       1.999985  1.998275  0.000182  0.000182  0.000059
                       2.000000  2.000000  2.000000  2.000000  2.000000  2.000000
                       2.000000  2.000000  2.000000  2.000000  2.000000  2.000000
                       2.000000  2.000000  2.000000  1.999999  1.999999  1.999996
                       1.999954  1.999785  0.000188  0.000108  0.000078
                       2.000000  2.000000  2.000000  2.000000  2.000000  2.000000
                       2.000000  2.000000  2.000000  2.000000  2.000000  2.000000
                       2.000000  2.000000  1.999999  1.999996  1.999996  1.999977
                       1.999685  1.999685  0.000832  0.000330  0.000087
                       2.000000  2.000000  2.000000  2.000000  2.000000  2.000000
                       2.000000  2.000000  2.000000  2.000000  2.000000  2.000000
                       2.000000  2.000000  2.000000  1.999999  1.999998  1.999984
                       1.999950  1.999098  0.000293  0.000215  0.000081
                       2.000000  2.000000  2.000000  2.000000  2.000000  2.000000
                       2.000000  2.000000  2.000000  2.000000  2.000000  2.000000
                       2.000000  2.000000  2.000000  1.999999  1.999999  1.999996
                       1.999954  1.999785  0.000188  0.000108  0.000078
                       2.000000  2.000000  2.000000  2.000000  2.000000  2.000000
[...]
                       2.000000  2.000000  2.000000  2.000000  2.000000  2.000000
                       2.000000  2.000000  2.000000  2.000000  1.999986  1.999876
                       1.999876  1.998158  0.000137  0.000137  0.000074
                       2.000000  2.000000  2.000000  2.000000  2.000000  2.000000
                       2.000000  2.000000  2.000000  2.000000  2.000000  2.000000
                       2.000000  2.000000  2.000000  2.000000  1.999996  1.999910
                       1.999879  1.999770  0.000159  0.000117  0.000069
                       2.000000  2.000000  2.000000  2.000000  2.000000  2.000000
                       2.000000  2.000000  2.000000  2.000000  2.000000  2.000000
                       2.000000  2.000000  1.999999  1.999996  1.999996  1.999977
                       1.999685  1.999685  0.000832  0.000330  0.000087
                       2.000000  2.000000  2.000000  2.000000  2.000000  2.000000
                       2.000000  2.000000  2.000000  2.000000  2.000000  2.000000
                       2.000000  2.000000  2.000000  1.999999  1.999998  1.999984
                       1.999950  1.999098  0.000293  0.000215  0.000081
                       prtocc : prtvol=0, do not print more k-points.
           occopt           3
        optforces           0
        optstress           0
        pawecutdg      3.50000000E+01 Hartree
         positron         -10
         posnstep        4
           prteig           0
          spgroup         221
           strten      9.9999999999E+99  9.9999999999E+99  9.9999999999E+99
                       9.9999999999E+99  9.9999999999E+99  9.9999999999E+99
           symrel      1  0  0   0  1  0   0  0  1      -1  0  0   0 -1  0   0  0 -1
                      -1  0  0   0  1  0   0  0 -1       1  0  0   0 -1  0   0  0  1
                      -1  0  0   0 -1  0   0  0  1       1  0  0   0  1  0   0  0 -1
                       1  0  0   0 -1  0   0  0 -1      -1  0  0   0  1  0   0  0  1
                       0  1  0   1  0  0   0  0  1       0 -1  0  -1  0  0   0  0 -1
                       0 -1  0   1  0  0   0  0 -1       0  1  0  -1  0  0   0  0  1
                       0 -1  0  -1  0  0   0  0  1       0  1  0   1  0  0   0  0 -1
                       0  1  0  -1  0  0   0  0 -1       0 -1  0   1  0  0   0  0  1
                       0  0  1   1  0  0   0  1  0       0  0 -1  -1  0  0   0 -1  0
                       0  0 -1   1  0  0   0 -1  0       0  0  1  -1  0  0   0  1  0
                       0  0 -1  -1  0  0   0  1  0       0  0  1   1  0  0   0 -1  0
                       0  0  1  -1  0  0   0 -1  0       0  0 -1   1  0  0   0  1  0
                       1  0  0   0  0  1   0  1  0      -1  0  0   0  0 -1   0 -1  0
                      -1  0  0   0  0  1   0 -1  0       1  0  0   0  0 -1   0  1  0
                      -1  0  0   0  0 -1   0  1  0       1  0  0   0  0  1   0 -1  0
                       1  0  0   0  0 -1   0 -1  0      -1  0  0   0  0  1   0  1  0
                       0  1  0   0  0  1   1  0  0       0 -1  0   0  0 -1  -1  0  0
                       0 -1  0   0  0  1  -1  0  0       0  1  0   0  0 -1   1  0  0
                       0 -1  0   0  0 -1   1  0  0       0  1  0   0  0  1  -1  0  0
                       0  1  0   0  0 -1  -1  0  0       0 -1  0   0  0  1   1  0  0
                       0  0  1   0  1  0   1  0  0       0  0 -1   0 -1  0  -1  0  0
                       0  0 -1   0  1  0  -1  0  0       0  0  1   0 -1  0   1  0  0
                       0  0 -1   0 -1  0   1  0  0       0  0  1   0  1  0  -1  0  0
                       0  0  1   0 -1  0  -1  0  0       0  0 -1   0  1  0   1  0  0
           tolvrs      1.00000000E-10
            typat      1  2  2  2  3
           useylm           1
              wtk        0.01563    0.01563    0.01563    0.01563    0.01563    0.01563
                         0.01563    0.01563    0.01563    0.01563    0.01563    0.01563
                         0.01563    0.01563    0.01563    0.01563    0.01563    0.01563
                         0.01563    0.01563    0.01563    0.01563    0.01563    0.01563
                         0.01563    0.01563    0.01563    0.01563    0.01563    0.01563
                         0.01563    0.01563    0.01563    0.01563    0.01563    0.01563
                         0.01563    0.01563    0.01563    0.01563    0.01563    0.01563
                         0.01563    0.01563    0.01563    0.01563    0.01563    0.01563
                         0.01563    0.01563
                       outvars : Printing only first  50 k-points.
           xangst      0.0000000000E+00  0.0000000000E+00  0.0000000000E+00
                       1.9150000000E+00  1.9150000000E+00  0.0000000000E+00
                       1.9150000000E+00  0.0000000000E+00  1.9150000000E+00
                       0.0000000000E+00  1.9150000000E+00  1.9150000000E+00
                       1.9150000000E+00  1.9150000000E+00  1.9150000000E+00
            xcart      0.0000000000E+00  0.0000000000E+00  0.0000000000E+00
                       3.6188255445E+00  3.6188255445E+00  0.0000000000E+00
                       3.6188255445E+00  0.0000000000E+00  3.6188255445E+00
                       0.0000000000E+00  3.6188255445E+00  3.6188255445E+00
                       3.6188255445E+00  3.6188255445E+00  3.6188255445E+00
             xred      0.0000000000E+00  0.0000000000E+00  0.0000000000E+00
                       5.0000000000E-01  5.0000000000E-01  0.0000000000E+00
                       5.0000000000E-01  0.0000000000E+00  5.0000000000E-01
                       0.0000000000E+00  5.0000000000E-01  5.0000000000E-01
                       5.0000000000E-01  5.0000000000E-01  5.0000000000E-01
            znucl       57.00000    8.00000   13.00000

 Suggested references for the acknowledgment of ABINIT usage.

 Calculation completed.
.Delivered   1 WARNINGs and   1 COMMENTs to log file.

--- !FinalSummary
program: abinit
version: 8.0.8
start_datetime: Wed Sep 13 19:10:30 2017
end_datetime: Wed Sep 13 19:11:28 2017
overall_cpu_time:        1829.5
overall_wall_time:        1836.8
exit_requested_by_user: no
timelimit: 0
pseudos:
    La  : e5b74747dbaf09c08d359fec40a113b6
    O   : cdec9e4013b4bb07e6906caf91b720aa
    Al  : 3ee9510e5024c61ec42665c3c658056d
usepaw: 1
mpi_procs: 32
omp_threads: 1
num_warnings: 1
num_comments: 1
...
   Tot. No. of Allocations             :  0
   Tot. No. of Deallocations           :  0
     Peak Value (MB)                   :  0
     for the array                     : null
     in the routine                    : null
 Max No. of dictionaries used          :  807 #( 797 still in use)
 Number of dictionary folders allocated:  1