.Version 9.0.2 of ABINIT

 ABINIT is a project of the Universite Catholique de Louvain,
 Corning Inc. and other collaborators, see ~abinit/doc/developers/contributors.txt .
 acknowledgments of the ABINIT effort.

.Starting date : Thu 11 Feb 2021.
- ( at 10h45 )

- input  file    -> AlAs.in
- output file    -> AlAs.out
- root for input  files -> AlAs_i
- root for output files -> AlAs_o

 DATASET    1 : space group F-4 3 m (#216); Bravais cF (face-center cubic)
     intxc =       0    ionmov =       0      iscf =       7    lmnmax =       2
     lnmax =       2     mgfft =      45  mpssoang =       3    mqgrid =    3001
     natom =       2  nloc_mem =       1    nspden =       1   nspinor =       1
    nsppol =       1      nsym =      24    n1xccc =    2501    ntypat =       2
    occopt =       3   xclevel =       1
-    mband =           5        mffmem =           1         mkmem =           1
       mpw =        3636          nfft =       91125          nkpt =          29
  Rough estimation (10% accuracy) of disk space for files :

 DATASET    2 : space group F-4 3 m (#216); Bravais cF (face-center cubic)
     intxc =       0      iscf =       7    lmnmax =       2     lnmax =       2
     mgfft =      45  mpssoang =       3    mqgrid =    3001     natom =       2
  nloc_mem =       1    nspden =       1   nspinor =       1    nsppol =       1
      nsym =      24    n1xccc =    2501    ntypat =       2    occopt =       3
   xclevel =       1
-    mband =           5        mffmem =           1         mkmem =           9
-   mkqmem =           9        mk1mem =           9           mpw =        3695
      nfft =       91125          nkpt =         260
  Rough estimation (10% accuracy) of disk space for files :

------------- Echo of variables that govern the present computation ------------
-
- outvars: echo of selected default values
-   iomode0 =  3 , fftalg0 =512 , wfoptalg0 =  0
-
- outvars: echo of global parameters not present in the input file
-  max_nthreads =    0
-
 -outvars: echo values of preprocessed input variables --------
            acell      1.0610000000E+01  1.0610000000E+01  1.0610000000E+01 Bohr
              amu      2.69815390E+01  7.49215900E+01
             ecut      4.00000000E+01 Hartree
           enunit           1
-          fftalg         512
           getwfk1          0
           getwfk2          1
           istwfk1       2    0    0    0    3    0    0    0    0    0
                         0    0    0    0    0    0    0    0    0    0
                         7    0    0    0    0    0    0    0    0
           istwfk2       1    0    0    0    1    0    0    0    0    0
                         0    0    0    0    0    0    0    0    0    0
                         0    0    0    0    0    0    0    0    0    1
                         0    0    0    1    0    0    0    0    0    0
                         0    0    0    0    0    0    0    0    0    0
                       outvar_i_n : Printing only first  50 k-points.
           jdtset        1    2
              kpt1     0.00000000E+00  0.00000000E+00  0.00000000E+00
                       1.25000000E-01  0.00000000E+00  0.00000000E+00
                       2.50000000E-01  0.00000000E+00  0.00000000E+00
                       3.75000000E-01  0.00000000E+00  0.00000000E+00
                       5.00000000E-01  0.00000000E+00  0.00000000E+00
                       1.25000000E-01  1.25000000E-01  0.00000000E+00
                       2.50000000E-01  1.25000000E-01  0.00000000E+00
                       3.75000000E-01  1.25000000E-01  0.00000000E+00
                       5.00000000E-01  1.25000000E-01  0.00000000E+00
                      -3.75000000E-01  1.25000000E-01  0.00000000E+00
                      -2.50000000E-01  1.25000000E-01  0.00000000E+00
                      -1.25000000E-01  1.25000000E-01  0.00000000E+00
                       2.50000000E-01  2.50000000E-01  0.00000000E+00
                       3.75000000E-01  2.50000000E-01  0.00000000E+00
                       5.00000000E-01  2.50000000E-01  0.00000000E+00
                      -3.75000000E-01  2.50000000E-01  0.00000000E+00
                      -2.50000000E-01  2.50000000E-01  0.00000000E+00
                       3.75000000E-01  3.75000000E-01  0.00000000E+00
                       5.00000000E-01  3.75000000E-01  0.00000000E+00
                      -3.75000000E-01  3.75000000E-01  0.00000000E+00
                       5.00000000E-01  5.00000000E-01  0.00000000E+00
                       3.75000000E-01  2.50000000E-01  1.25000000E-01
                       5.00000000E-01  2.50000000E-01  1.25000000E-01
                      -3.75000000E-01  2.50000000E-01  1.25000000E-01
                       5.00000000E-01  3.75000000E-01  1.25000000E-01
                      -3.75000000E-01  3.75000000E-01  1.25000000E-01
                      -2.50000000E-01  3.75000000E-01  1.25000000E-01
                      -3.75000000E-01  5.00000000E-01  1.25000000E-01
                      -2.50000000E-01  5.00000000E-01  2.50000000E-01
              kpt2     0.00000000E+00  0.00000000E+00  0.00000000E+00
                       1.25000000E-01  0.00000000E+00  0.00000000E+00
                       2.50000000E-01  0.00000000E+00  0.00000000E+00
                       3.75000000E-01  0.00000000E+00  0.00000000E+00
                       5.00000000E-01  0.00000000E+00  0.00000000E+00
                       0.00000000E+00  1.25000000E-01  0.00000000E+00
                       1.25000000E-01  1.25000000E-01  0.00000000E+00
                       2.50000000E-01  1.25000000E-01  0.00000000E+00
                       3.75000000E-01  1.25000000E-01  0.00000000E+00
                       5.00000000E-01  1.25000000E-01  0.00000000E+00
                      -3.75000000E-01  1.25000000E-01  0.00000000E+00
                      -2.50000000E-01  1.25000000E-01  0.00000000E+00
                      -1.25000000E-01  1.25000000E-01  0.00000000E+00
                       0.00000000E+00  2.50000000E-01  0.00000000E+00
                       1.25000000E-01  2.50000000E-01  0.00000000E+00
                       2.50000000E-01  2.50000000E-01  0.00000000E+00
                       3.75000000E-01  2.50000000E-01  0.00000000E+00
                       5.00000000E-01  2.50000000E-01  0.00000000E+00
                      -3.75000000E-01  2.50000000E-01  0.00000000E+00
                      -2.50000000E-01  2.50000000E-01  0.00000000E+00
                      -1.25000000E-01  2.50000000E-01  0.00000000E+00
                       0.00000000E+00  3.75000000E-01  0.00000000E+00
                       1.25000000E-01  3.75000000E-01  0.00000000E+00
                       2.50000000E-01  3.75000000E-01  0.00000000E+00
                       3.75000000E-01  3.75000000E-01  0.00000000E+00
                       5.00000000E-01  3.75000000E-01  0.00000000E+00
                      -3.75000000E-01  3.75000000E-01  0.00000000E+00
                      -2.50000000E-01  3.75000000E-01  0.00000000E+00
                      -1.25000000E-01  3.75000000E-01  0.00000000E+00
                       0.00000000E+00  5.00000000E-01  0.00000000E+00
                       1.25000000E-01  5.00000000E-01  0.00000000E+00
                       2.50000000E-01  5.00000000E-01  0.00000000E+00
                       3.75000000E-01  5.00000000E-01  0.00000000E+00
                       5.00000000E-01  5.00000000E-01  0.00000000E+00
                       0.00000000E+00  0.00000000E+00  1.25000000E-01
                       1.25000000E-01  0.00000000E+00  1.25000000E-01
                       2.50000000E-01  0.00000000E+00  1.25000000E-01
                       3.75000000E-01  0.00000000E+00  1.25000000E-01
                       5.00000000E-01  0.00000000E+00  1.25000000E-01
                      -3.75000000E-01  0.00000000E+00  1.25000000E-01
                      -2.50000000E-01  0.00000000E+00  1.25000000E-01
                      -1.25000000E-01  0.00000000E+00  1.25000000E-01
                       0.00000000E+00  1.25000000E-01  1.25000000E-01
                       1.25000000E-01  1.25000000E-01  1.25000000E-01
                       2.50000000E-01  1.25000000E-01  1.25000000E-01
                       3.75000000E-01  1.25000000E-01  1.25000000E-01
                       5.00000000E-01  1.25000000E-01  1.25000000E-01
                      -3.75000000E-01  1.25000000E-01  1.25000000E-01
                      -2.50000000E-01  1.25000000E-01  1.25000000E-01
                      -1.25000000E-01  1.25000000E-01  1.25000000E-01
                       outvar_i_n : Printing only first  50 k-points.
           kptopt1          1
           kptopt2          2
         kptrlatt        8    0    0      0    8    0      0    0    8
          kptrlen      6.00192236E+01
P           mkmem1          1
P           mkmem2          9
P          mkqmem1          1
P          mkqmem2          9
P          mk1mem1          1
P          mk1mem2          9
            natom           2
            nband1          5
            nband2          5
           nbdbuf1          0
           nbdbuf2          2
           ndtset           2
            ngfft          45      45      45
             nkpt1         29
             nkpt2        260
             nqpt1          0
             nqpt2          1
            nstep         150
             nsym          24
           ntypat           2
              occ1     2.000000  2.000000  2.000000  2.000000  0.000000
                       2.000000  2.000000  2.000000  2.000000  0.000000
                       2.000000  2.000000  2.000000  2.000000  0.000000
                       2.000000  2.000000  2.000000  2.000000  0.000000
                       2.000000  2.000000  2.000000  2.000000  0.000000
                       2.000000  2.000000  2.000000  2.000000  0.000000
                       2.000000  2.000000  2.000000  2.000000  0.000000
                       2.000000  2.000000  2.000000  2.000000  0.000000
                       2.000000  2.000000  2.000000  2.000000  0.000000
                       2.000000  2.000000  2.000000  2.000000  0.000000
                       2.000000  2.000000  2.000000  2.000000  0.000000
                       2.000000  2.000000  2.000000  2.000000  0.000000
                       2.000000  2.000000  2.000000  2.000000  0.000000
                       2.000000  2.000000  2.000000  2.000000  0.000000
                       2.000000  2.000000  2.000000  2.000000  0.000000
                       2.000000  2.000000  2.000000  2.000000  0.000000
                       2.000000  2.000000  2.000000  2.000000  0.000000
                       2.000000  2.000000  2.000000  2.000000  0.000000
                       2.000000  2.000000  2.000000  2.000000  0.000000
                       2.000000  2.000000  2.000000  2.000000  0.000000
                       2.000000  2.000000  2.000000  2.000000  0.000000
                       2.000000  2.000000  2.000000  2.000000  0.000000
                       2.000000  2.000000  2.000000  2.000000  0.000000
                       2.000000  2.000000  2.000000  2.000000  0.000000
[...]
                         0    0    0    0    0    0    0    0    0    0
                         7    0    0    0    0    0    0    0    0
           istwfk2       1    0    0    0    1    0    0    0    0    0
                         0    0    0    0    0    0    0    0    0    0
                         0    0    0    0    0    0    0    0    0    1
                         0    0    0    1    0    0    0    0    0    0
                         0    0    0    0    0    0    0    0    0    0
                       outvar_i_n : Printing only first  50 k-points.
           jdtset        1    2
              kpt1     0.00000000E+00  0.00000000E+00  0.00000000E+00
                       1.25000000E-01  0.00000000E+00  0.00000000E+00
                       2.50000000E-01  0.00000000E+00  0.00000000E+00
                       3.75000000E-01  0.00000000E+00  0.00000000E+00
                       5.00000000E-01  0.00000000E+00  0.00000000E+00
                       1.25000000E-01  1.25000000E-01  0.00000000E+00
                       2.50000000E-01  1.25000000E-01  0.00000000E+00
                       3.75000000E-01  1.25000000E-01  0.00000000E+00
                       5.00000000E-01  1.25000000E-01  0.00000000E+00
                      -3.75000000E-01  1.25000000E-01  0.00000000E+00
                      -2.50000000E-01  1.25000000E-01  0.00000000E+00
                      -1.25000000E-01  1.25000000E-01  0.00000000E+00
                       2.50000000E-01  2.50000000E-01  0.00000000E+00
                       3.75000000E-01  2.50000000E-01  0.00000000E+00
                       5.00000000E-01  2.50000000E-01  0.00000000E+00
                      -3.75000000E-01  2.50000000E-01  0.00000000E+00
                      -2.50000000E-01  2.50000000E-01  0.00000000E+00
                       3.75000000E-01  3.75000000E-01  0.00000000E+00
                       5.00000000E-01  3.75000000E-01  0.00000000E+00
                      -3.75000000E-01  3.75000000E-01  0.00000000E+00
                       5.00000000E-01  5.00000000E-01  0.00000000E+00
                       3.75000000E-01  2.50000000E-01  1.25000000E-01
                       5.00000000E-01  2.50000000E-01  1.25000000E-01
                      -3.75000000E-01  2.50000000E-01  1.25000000E-01
                       5.00000000E-01  3.75000000E-01  1.25000000E-01
                      -3.75000000E-01  3.75000000E-01  1.25000000E-01
                      -2.50000000E-01  3.75000000E-01  1.25000000E-01
                      -3.75000000E-01  5.00000000E-01  1.25000000E-01
                      -2.50000000E-01  5.00000000E-01  2.50000000E-01
              kpt2     0.00000000E+00  0.00000000E+00  0.00000000E+00
                       1.25000000E-01  0.00000000E+00  0.00000000E+00
                       2.50000000E-01  0.00000000E+00  0.00000000E+00
                       3.75000000E-01  0.00000000E+00  0.00000000E+00
                       5.00000000E-01  0.00000000E+00  0.00000000E+00
                       0.00000000E+00  1.25000000E-01  0.00000000E+00
                       1.25000000E-01  1.25000000E-01  0.00000000E+00
                       2.50000000E-01  1.25000000E-01  0.00000000E+00
                       3.75000000E-01  1.25000000E-01  0.00000000E+00
                       5.00000000E-01  1.25000000E-01  0.00000000E+00
                      -3.75000000E-01  1.25000000E-01  0.00000000E+00
                      -2.50000000E-01  1.25000000E-01  0.00000000E+00
                      -1.25000000E-01  1.25000000E-01  0.00000000E+00
                       0.00000000E+00  2.50000000E-01  0.00000000E+00
                       1.25000000E-01  2.50000000E-01  0.00000000E+00
                       2.50000000E-01  2.50000000E-01  0.00000000E+00
                       3.75000000E-01  2.50000000E-01  0.00000000E+00
                       5.00000000E-01  2.50000000E-01  0.00000000E+00
                      -3.75000000E-01  2.50000000E-01  0.00000000E+00
                      -2.50000000E-01  2.50000000E-01  0.00000000E+00
                      -1.25000000E-01  2.50000000E-01  0.00000000E+00
                       0.00000000E+00  3.75000000E-01  0.00000000E+00
                       1.25000000E-01  3.75000000E-01  0.00000000E+00
                       2.50000000E-01  3.75000000E-01  0.00000000E+00
                       3.75000000E-01  3.75000000E-01  0.00000000E+00
                       5.00000000E-01  3.75000000E-01  0.00000000E+00
                      -3.75000000E-01  3.75000000E-01  0.00000000E+00
                      -2.50000000E-01  3.75000000E-01  0.00000000E+00
                      -1.25000000E-01  3.75000000E-01  0.00000000E+00
                       0.00000000E+00  5.00000000E-01  0.00000000E+00
                       1.25000000E-01  5.00000000E-01  0.00000000E+00
                       2.50000000E-01  5.00000000E-01  0.00000000E+00
                       3.75000000E-01  5.00000000E-01  0.00000000E+00
                       5.00000000E-01  5.00000000E-01  0.00000000E+00
                       0.00000000E+00  0.00000000E+00  1.25000000E-01
                       1.25000000E-01  0.00000000E+00  1.25000000E-01
                       2.50000000E-01  0.00000000E+00  1.25000000E-01
                       3.75000000E-01  0.00000000E+00  1.25000000E-01
                       5.00000000E-01  0.00000000E+00  1.25000000E-01
                      -3.75000000E-01  0.00000000E+00  1.25000000E-01
                      -2.50000000E-01  0.00000000E+00  1.25000000E-01
                      -1.25000000E-01  0.00000000E+00  1.25000000E-01
                       0.00000000E+00  1.25000000E-01  1.25000000E-01
                       1.25000000E-01  1.25000000E-01  1.25000000E-01
                       2.50000000E-01  1.25000000E-01  1.25000000E-01
                       3.75000000E-01  1.25000000E-01  1.25000000E-01
                       5.00000000E-01  1.25000000E-01  1.25000000E-01
                      -3.75000000E-01  1.25000000E-01  1.25000000E-01
                      -2.50000000E-01  1.25000000E-01  1.25000000E-01
                      -1.25000000E-01  1.25000000E-01  1.25000000E-01
                       outvar_i_n : Printing only first  50 k-points.
           kptopt1          1
           kptopt2          2
         kptrlatt        8    0    0      0    8    0      0    0    8
          kptrlen      6.00192236E+01
P           mkmem1          1
P           mkmem2          9
P          mkqmem1          1
P          mkqmem2          9
P          mk1mem1          1
P          mk1mem2          9
            natom           2
            nband1          5
            nband2          5
           nbdbuf1          0
           nbdbuf2          2
           ndtset           2
            ngfft          45      45      45
             nkpt1         29
             nkpt2        260
             nqpt1          0
             nqpt2          1
            nstep         150
             nsym          24
           ntypat           2
              occ1     2.000000  2.000000  2.000000  2.000000  0.000000
                       2.000000  2.000000  2.000000  2.000000  0.000000
                       2.000000  2.000000  2.000000  2.000000  0.000000
                       2.000000  2.000000  2.000000  2.000000  0.000000
                       2.000000  2.000000  2.000000  2.000000  0.000000
                       2.000000  2.000000  2.000000  2.000000  0.000000
                       2.000000  2.000000  2.000000  2.000000  0.000000
                       2.000000  2.000000  2.000000  2.000000  0.000000
                       2.000000  2.000000  2.000000  2.000000  0.000000
                       2.000000  2.000000  2.000000  2.000000  0.000000
                       2.000000  2.000000  2.000000  2.000000  0.000000
                       2.000000  2.000000  2.000000  2.000000  0.000000
                       2.000000  2.000000  2.000000  2.000000  0.000000
                       2.000000  2.000000  2.000000  2.000000  0.000000
                       2.000000  2.000000  2.000000  2.000000  0.000000
                       2.000000  2.000000  2.000000  2.000000  0.000000
                       2.000000  2.000000  2.000000  2.000000  0.000000
                       2.000000  2.000000  2.000000  2.000000  0.000000
                       2.000000  2.000000  2.000000  2.000000  0.000000
                       2.000000  2.000000  2.000000  2.000000  0.000000
                       2.000000  2.000000  2.000000  2.000000  0.000000
                       2.000000  2.000000  2.000000  2.000000  0.000000
                       2.000000  2.000000  2.000000  2.000000  0.000000
                       2.000000  2.000000  2.000000  2.000000  0.000000
                       2.000000  2.000000  2.000000  2.000000  0.000000
                       2.000000  2.000000  2.000000  2.000000  0.000000
                       2.000000  2.000000  2.000000  2.000000  0.000000
                       2.000000  2.000000  2.000000  2.000000  0.000000
                       2.000000  2.000000  2.000000  2.000000  0.000000
              occ2     2.000000  2.000000  2.000000  2.000000  0.000000
                       2.000000  2.000000  2.000000  2.000000  0.000000
                       2.000000  2.000000  2.000000  2.000000  0.000000
                       2.000000  2.000000  2.000000  2.000000  0.000000
                       2.000000  2.000000  2.000000  2.000000  0.000000
                       2.000000  2.000000  2.000000  2.000000  0.000000
                       2.000000  2.000000  2.000000  2.000000  0.000000
                       2.000000  2.000000  2.000000  2.000000  0.000000
                       2.000000  2.000000  2.000000  2.000000  0.000000
                       2.000000  2.000000  2.000000  2.000000  0.000000
                       2.000000  2.000000  2.000000  2.000000  0.000000
                       2.000000  2.000000  2.000000  2.000000  0.000000
                       2.000000  2.000000  2.000000  2.000000  0.000000
                       2.000000  2.000000  2.000000  2.000000  0.000000
                       2.000000  2.000000  2.000000  2.000000  0.000000
                       2.000000  2.000000  2.000000  2.000000  0.000000
                       2.000000  2.000000  2.000000  2.000000  0.000000
                       2.000000  2.000000  2.000000  2.000000  0.000000
                       2.000000  2.000000  2.000000  2.000000  0.000000
                       2.000000  2.000000  2.000000  2.000000  0.000000
                       2.000000  2.000000  2.000000  2.000000  0.000000
                       2.000000  2.000000  2.000000  2.000000  0.000000
                       2.000000  2.000000  2.000000  2.000000  0.000000
                       2.000000  2.000000  2.000000  2.000000  0.000000
                       2.000000  2.000000  2.000000  2.000000  0.000000
                       2.000000  2.000000  2.000000  2.000000  0.000000
                       2.000000  2.000000  2.000000  2.000000  0.000000
                       2.000000  2.000000  2.000000  2.000000  0.000000
                       2.000000  2.000000  2.000000  2.000000  0.000000
                       2.000000  2.000000  2.000000  2.000000  0.000000
                       2.000000  2.000000  2.000000  2.000000  0.000000
                       2.000000  2.000000  2.000000  2.000000  0.000000
                       2.000000  2.000000  2.000000  2.000000  0.000000
                       2.000000  2.000000  2.000000  2.000000  0.000000
                       2.000000  2.000000  2.000000  2.000000  0.000000
                       2.000000  2.000000  2.000000  2.000000  0.000000
                       2.000000  2.000000  2.000000  2.000000  0.000000
                       2.000000  2.000000  2.000000  2.000000  0.000000
                       2.000000  2.000000  2.000000  2.000000  0.000000
                       2.000000  2.000000  2.000000  2.000000  0.000000
                       2.000000  2.000000  2.000000  2.000000  0.000000
                       2.000000  2.000000  2.000000  2.000000  0.000000
                       2.000000  2.000000  2.000000  2.000000  0.000000
                       2.000000  2.000000  2.000000  2.000000  0.000000
                       2.000000  2.000000  2.000000  2.000000  0.000000
                       2.000000  2.000000  2.000000  2.000000  0.000000
                       2.000000  2.000000  2.000000  2.000000  0.000000
                       2.000000  2.000000  2.000000  2.000000  0.000000
                       2.000000  2.000000  2.000000  2.000000  0.000000
                       2.000000  2.000000  2.000000  2.000000  0.000000
                       prtocc : prtvol=0, do not print more k-points.
           occopt           3
        optdriver1          0
        optdriver2          1
          rfatpol1          1       1
          rfatpol2          1       2
            rfdir1          0       0       0
            rfdir2          1       1       1
           rfphon1          0
           rfphon2          1
            rprim      0.0000000000E+00  5.0000000000E-01  5.0000000000E-01
                       5.0000000000E-01  0.0000000000E+00  5.0000000000E-01
                       5.0000000000E-01  5.0000000000E-01  0.0000000000E+00
          spgroup         216
           strten1    -5.7491690836E-06 -5.7491690836E-06 -5.7491690836E-06
                       0.0000000000E+00  0.0000000000E+00  0.0000000000E+00
           strten2     0.0000000000E+00  0.0000000000E+00  0.0000000000E+00
                       0.0000000000E+00  0.0000000000E+00  0.0000000000E+00
           symrel      1  0  0   0  1  0   0  0  1       0 -1  1   0 -1  0   1 -1  0
                      -1  0  0  -1  0  1  -1  1  0       0  1 -1   1  0 -1   0  0 -1
                      -1  0  0  -1  1  0  -1  0  1       0 -1  1   1 -1  0   0 -1  0
                       1  0  0   0  0  1   0  1  0       0  1 -1   0  0 -1   1  0 -1
                      -1  0  1  -1  1  0  -1  0  0       0 -1  0   1 -1  0   0 -1  1
                       1  0 -1   0  0 -1   0  1 -1       0  1  0   0  0  1   1  0  0
                       1  0 -1   0  1 -1   0  0 -1       0 -1  0   0 -1  1   1 -1  0
                      -1  0  1  -1  0  0  -1  1  0       0  1  0   1  0  0   0  0  1
                       0  0 -1   0  1 -1   1  0 -1       1 -1  0   0 -1  1   0 -1  0
                       0  0  1   1  0  0   0  1  0      -1  1  0  -1  0  0  -1  0  1
                       0  0  1   0  1  0   1  0  0       1 -1  0   0 -1  0   0 -1  1
                       0  0 -1   1  0 -1   0  1 -1      -1  1  0  -1  0  1  -1  0  0
           tolvrs1     1.00000000E-19
           tolvrs2     1.00000000E-17
           tsmear      1.00000000E-03 Hartree
            typat      1  2
              wtk1       0.00195    0.01563    0.01563    0.01563    0.00781    0.01172
                         0.04688    0.04688    0.04688    0.04688    0.04688    0.02344
                         0.01172    0.04688    0.04688    0.04688    0.02344    0.01172
                         0.04688    0.02344    0.00586    0.04688    0.09375    0.04688
                         0.04688    0.09375    0.04688    0.02344    0.01172
              wtk2       0.00195    0.00391    0.00391    0.00391    0.00195    0.00391
                         0.00391    0.00391    0.00391    0.00391    0.00391    0.00391
                         0.00391    0.00391    0.00391    0.00391    0.00391    0.00391
                         0.00391    0.00391    0.00391    0.00391    0.00391    0.00391
                         0.00391    0.00391    0.00391    0.00391    0.00391    0.00195
                         0.00391    0.00391    0.00391    0.00195    0.00391    0.00391
                         0.00391    0.00391    0.00391    0.00391    0.00391    0.00391
                         0.00391    0.00391    0.00391    0.00391    0.00391    0.00391
                         0.00391    0.00391
                       outvars : Printing only first  50 k-points.
           xangst      0.0000000000E+00  0.0000000000E+00  0.0000000000E+00
                       1.4036425458E+00  1.4036425458E+00  1.4036425458E+00
            xcart      0.0000000000E+00  0.0000000000E+00  0.0000000000E+00
                       2.6525000000E+00  2.6525000000E+00  2.6525000000E+00
             xred      0.0000000000E+00  0.0000000000E+00  0.0000000000E+00
                       2.5000000000E-01  2.5000000000E-01  2.5000000000E-01
            znucl       13.00000   33.00000

- Timing analysis has been suppressed with timopt=0

 Suggested references for the acknowledgment of ABINIT usage.

 Calculation completed.
.Delivered   0 WARNINGs and   0 COMMENTs to log file.