.Version 7.8.1 of ABINIT

 ABINIT is a project of the Universite Catholique de Louvain,
 Corning Inc. and other collaborators, see ~abinit/doc/developers/contributors.txt .
 Please read ~abinit/doc/users/acknowledgments.html for suggested
 acknowledgments of the ABINIT effort.

.Starting date : Thu 31 Jul 2014.
- ( at 00h14 )

 === Build Information ===
  Version       : 7.8.1
  Build target  : x86_64_linux_gnu4.8
  Build date    : 20140729

 === Optimizations ===
  Debug level        : basic
  Optimization level : standard
  Architecture       : amd_opteron

 === Multicore ===
  Parallel build : yes
  Parallel I/O   : yes
  openMP support : no
  GPU support    : no

 === Connectors / Fallbacks ===
  Connectors on : yes
  Fallbacks on  : yes
  FFT flavor    : fftw3
  LINALG flavor : atlas
  MATH flavor   : none
  TIMER flavor  : abinit
  TRIO flavor   : none

 === Experimental features ===
  Bindings            : @enable_bindings@
  Exports             : no
  GW double-precision : yes

 Default optimizations:
   -O2 -mtune=native -march=native

 CPP options activated during the build:

                    CC_GNU                   CXX_GNU                    FC_GNU

             HAVE_FC_ASYNC         HAVE_FC_BACKTRACE  HAVE_FC_COMMAND_ARGUMENT

      HAVE_FC_COMMAND_LINE        HAVE_FC_CONTIGUOUS           HAVE_FC_CPUTIME

              HAVE_FC_EXIT             HAVE_FC_FLUSH             HAVE_FC_GAMMA

            HAVE_FC_GETENV          HAVE_FC_INT_QUAD             HAVE_FC_IOMSG

     HAVE_FC_ISO_C_BINDING        HAVE_FC_LONG_LINES           HAVE_FC_PRIVATE

         HAVE_FC_PROTECTED         HAVE_FC_STREAM_IO            HAVE_FC_SYSTEM

                  HAVE_FFT            HAVE_FFT_FFTW3              HAVE_FFT_MPI

           HAVE_FFT_SERIAL          HAVE_FORTRAN2003               HAVE_GW_DPC

        HAVE_LIBPAW_ABINIT               HAVE_LINALG        HAVE_LINALG_SERIAL

                  HAVE_MPI                 HAVE_MPI2               HAVE_MPI_IO

 HAVE_MPI_TYPE_CREATE_S...             HAVE_OS_LINUX                HAVE_TIMER

         HAVE_TIMER_ABINIT            HAVE_TIMER_MPI         HAVE_TIMER_SERIAL

              USE_MACROAVE

- input  file    -> telast_1.in
- output file    -> telast_1.out
- root for input  files -> telast_1i
- root for output files -> telast_1o

-instrng :    98 lines of input have been read from file telast_1.in

 iofn2 : Please give name of formatted atomic psp file
 iofn2 : for atom type   1 , psp file is 03-Li.GGA.fhi

[...]

 iofn2 : Please give name of formatted atomic psp file
 iofn2 : for atom type   3 , psp file is 15-P.GGA.fhi

 iofn2 : Please give name of formatted atomic psp file
 iofn2 : for atom type   4 , psp file is 08-O.GGA.fhi
  read the values zionpsp=  1.0 , pspcod=   6 , lmax=   3
  read the values zionpsp=  8.0 , pspcod=   6 , lmax=   3
  read the values zionpsp=  5.0 , pspcod=   6 , lmax=   3
  read the values zionpsp=  6.0 , pspcod=   6 , lmax=   3

 inpspheads: deduce mpsang  =   4, n1xccc  =2501.

 invars1m : enter jdtset=1
 invars1 : treat image number     1

 symlatt : the Bravais lattice is oP (primitive orthorhombic)
  xred   is defined in input file
 ingeo : takes atomic coordinates from input array xred
  Describe the different generators (index,symrel,tnons,symafm)
  1    1  0  0  0  1  0  0  0  1    0.00E+00    0.00E+00    0.00E+00  1
  2   -1  0  0  0 -1  0  0  0  1    5.00E-01    0.00E+00    5.00E-01  1
  3   -1  0  0  0  1  0  0  0 -1    0.00E+00    5.00E-01    0.00E+00  1
  4    1  0  0  0 -1  0  0  0 -1    5.00E-01    5.00E-01    5.00E-01  1
  the choosen orientation corresponds to: abc; the proper one

 symlatt : the Bravais lattice is oP (primitive orthorhombic)

 symlatt : the Bravais lattice is oP (primitive orthorhombic)
 symspgr : spgroup=  62  Pn m a   (=D2h^16)
       Simple Lattice Grid

 invars1m : enter jdtset=2
 invars1 : treat image number     1

 symlatt : the Bravais lattice is oP (primitive orthorhombic)
  xred   is defined in input file
 ingeo : takes atomic coordinates from input array xred
  Describe the different generators (index,symrel,tnons,symafm)
  1    1  0  0  0  1  0  0  0  1    0.00E+00    0.00E+00    0.00E+00  1
  2   -1  0  0  0 -1  0  0  0  1    5.00E-01    0.00E+00    5.00E-01  1
  3   -1  0  0  0  1  0  0  0 -1    0.00E+00    5.00E-01    0.00E+00  1
  4    1  0  0  0 -1  0  0  0 -1    5.00E-01    5.00E-01    5.00E-01  1
  the choosen orientation corresponds to: abc; the proper one

 symlatt : the Bravais lattice is oP (primitive orthorhombic)

 symlatt : the Bravais lattice is oP (primitive orthorhombic)
 symspgr : spgroup=  62  Pn m a   (=D2h^16)
       Simple Lattice Grid
 invars2: take the default value of fband=  1.25000000E-01
       Simple Lattice Grid
  dtset%nelect=   152.00000000000000
 chkneu : initialized the occupation numbers for occopt=    1
    spin-unpolarized case :
  2.00  2.00  2.00  2.00  2.00  2.00  2.00  2.00  2.00  2.00  2.00  2.00
  2.00  2.00  2.00  2.00  2.00  2.00  2.00  2.00  2.00  2.00  2.00  2.00
  2.00  2.00  2.00  2.00  2.00  2.00  2.00  2.00  2.00  2.00  2.00  2.00
  2.00  2.00  2.00  2.00  2.00  2.00  2.00  2.00  2.00  2.00  2.00  2.00
  2.00  2.00  2.00  2.00  2.00  2.00  2.00  2.00  2.00  2.00  2.00  2.00
  2.00  2.00  2.00  2.00  2.00  2.00  2.00  2.00  2.00  2.00  2.00  2.00
  2.00  2.00  2.00  2.00  0.00  0.00  0.00  0.00
 invars2: take the default value of fband=  1.25000000E-01
       Simple Lattice Grid
  dtset%nelect=   152.00000000000000
 chkneu : initialized the occupation numbers for occopt=    1
    spin-unpolarized case :
  2.00  2.00  2.00  2.00  2.00  2.00  2.00  2.00  2.00  2.00  2.00  2.00
  2.00  2.00  2.00  2.00  2.00  2.00  2.00  2.00  2.00  2.00  2.00  2.00
  2.00  2.00  2.00  2.00  2.00  2.00  2.00  2.00  2.00  2.00  2.00  2.00
  2.00  2.00  2.00  2.00  2.00  2.00  2.00  2.00  2.00  2.00  2.00  2.00
  2.00  2.00  2.00  2.00  2.00  2.00  2.00  2.00  2.00  2.00  2.00  2.00
  2.00  2.00  2.00  2.00  2.00  2.00  2.00  2.00  2.00  2.00  2.00  2.00
  2.00  2.00  2.00  2.00  0.00  0.00  0.00  0.00
 getmpw sequential formula gave:     5456

 Computing all possible proc distrib for this input with nproc less than 40
     npimage|       npkpt|    npspinor|       npfft|      npband|     bandpp |       nproc|      weight|
   1 ->    1|   1 ->   40|   1 ->    1|   1 ->   18|   1 ->   40|   1 ->    8|   2 ->   40|   1 ->   40|
           1|          40|           1|           1|           1|           1|          40|      38.51 |
           1|          20|           1|           2|           1|           1|          40|      37.67 |
           1|          20|           1|           1|           2|           1|          40|      37.67 |
           1|          10|           1|           1|           4|           1|          40|      36.00 |
           1|          10|           1|           2|           2|           1|          40|      36.00 |
npfft, npband, npspinor and npkpt:     1    1    1   40
mpi_setup: mkmem  undefined in the input file.Use default mkmem  = nkpt
 mpi_setup: With nkpt_me=1 and mkmem  = 40, ground state wf handled in core.
mpi_setup: mkqmem undefined in the input file.Use default mkqmem = nkpt
 mpi_setup: With nkpt_me=1 and mkqmem = 40, ground state wf handled in core.
mpi_setup: mk1mem undefined in the input file.Use default mk1mem = nkpt
 mpi_setup: With nkpt_me=1 and mk1mem = 40, ground state wf handled in core.

--- !COMMENT
message: |
    The second and third dimension of the FFT grid: 0, 0
src_file: getng.F90
src_line: 204
...

 For input ecut=  1.500000E+01 best grid ngfft=      72      40      32
       max ecut=  1.530323E+01

 ==== FFT mesh ====
  FFT mesh divisions ........................    72   40   32
  Augmented FFT divisions ...................    73   41   32
  FFT algorithm .............................   312
  FFT cache size ............................    16
 getmpw: optimal value of mpw=    5490
 getmpw sequential formula gave:     6316

 Computing all possible proc distrib for this input with nproc less than 40
     npimage|       npkpt|    npspinor|       npfft|      npband|     bandpp |       nproc|      weight|
   1 ->    1|   1 ->   40|   1 ->    1|   1 ->   20|   1 ->   40|   1 ->    8|   2 ->   40|   1 ->   40|
           1|          40|           1|           1|           1|           1|          40|      38.51 |
           1|          20|           1|           2|           1|           1|          40|      37.67 |
           1|          20|           1|           1|           2|           1|          40|      37.67 |
           1|          10|           1|           2|           2|           1|          40|      36.00 |
           1|          10|           1|           1|           4|           1|          40|      36.00 |
npfft, npband, npspinor and npkpt:     1    1    1   40
mpi_setup: mkmem  undefined in the input file.Use default mkmem  = nkpt
 mpi_setup: With nkpt_me=1 and mkmem  = 40, ground state wf handled in core.
mpi_setup: mkqmem undefined in the input file.Use default mkqmem = nkpt
 mpi_setup: With nkpt_me=1 and mkqmem = 40, ground state wf handled in core.
mpi_setup: mk1mem undefined in the input file.Use default mk1mem = nkpt
 mpi_setup: With nkpt_me=1 and mk1mem = 40, ground state wf handled in core.
 For input ecut=  1.653750E+01 best grid ngfft=      72      45      36
       max ecut=  1.677677E+01

 ==== FFT mesh ====
  FFT mesh divisions ........................    72   45   36
  Augmented FFT divisions ...................    73   45   36
  FFT algorithm .............................   312
  FFT cache size ............................    16
 getmpw: optimal value of mpw=    6340

 DATASET    1 : space group Pn m a (# 62); Bravais oP (primitive ortho.)

 getdim_nloc : deduce lmnmax  =  16, lnmax  =   4,
                      lmnmaxso=  16, lnmaxso=   4.
   intxc =         0  ionmov =         2    iscf =         7 xclevel =         2
  lmnmax =         4   lnmax =         4   mband =        80  mffmem =         1
P  mgfft =        72   mkmem =         1 mpssoang=         4     mpw =      5490
  mqgrid =      3405   natom =        28    nfft =     92160    nkpt =        40
  nloalg =         4  nspden =         1 nspinor =         1  nsppol =         1
    nsym =         8  n1xccc =      2501  ntypat =         4  occopt =         1
  Rough estimation (10% accuracy) of disk space for files :

 The job will continue.

 DATASET    2 : space group Pn m a (# 62); Bravais oP (primitive ortho.)

 getdim_nloc : deduce lmnmax  =  16, lnmax  =   4,
                      lmnmaxso=  16, lnmaxso=   4.
   intxc =         0  ionmov =         2    iscf =         7 xclevel =         2
  lmnmax =         4   lnmax =         4   mband =        80  mffmem =         1
P  mgfft =        72   mkmem =         1 mpssoang=         4     mpw =      6340
  mqgrid =      3575   natom =        28    nfft =    116640    nkpt =        40
  nloalg =         4  nspden =         1 nspinor =         1  nsppol =         1
    nsym =         8  n1xccc =      2501  ntypat =         4  occopt =         1
  Rough estimation (10% accuracy) of disk space for files :

 The job will continue.
[...]
                      -1  0  0   0 -1  0   0  0 -1       1  0  0   0  1  0   0  0 -1
                       1  0  0   0 -1  0   0  0  1      -1  0  0   0  1  0   0  0  1
            tnons      0.0000000  0.0000000  0.0000000     0.5000000  0.0000000  0.5000000
                       0.0000000  0.5000000  0.0000000     0.5000000  0.5000000  0.5000000
                      -0.0000000 -0.0000000 -0.0000000     0.5000000 -0.0000000  0.5000000
                      -0.0000000  0.5000000 -0.0000000     0.5000000  0.5000000  0.5000000
           tolmxf      1.00000000E-06
           tolvrs      1.00000000E-10
            typat      1  2  3  4  4  4  1  2  3  4  4  4  1  2  3  4  4  4  1  2
                       3  4  4  4  4  4  4  4
              wtk        0.03175    0.03175    0.03175    0.03175    0.03175    0.03175
                         0.01587    0.01587    0.03175    0.03175    0.03175    0.03175
                         0.03175    0.03175    0.01587    0.01587    0.03175    0.03175
                         0.03175    0.03175    0.03175    0.03175    0.01587    0.01587
                         0.03175    0.03175    0.03175    0.03175    0.03175    0.03175
                         0.01587    0.01587    0.01587    0.01587    0.01587    0.01587
                         0.01587    0.01587    0.00794    0.00794
           xangst1     0.0000000000E+00  0.0000000000E+00  0.0000000000E+00
                       2.8138776964E+00  1.5024998852E+00  4.6370688997E+00
                       9.9157125863E-01  1.5024998852E+00  1.9919269629E+00
                       1.0630792575E+00  1.5024998852E+00  3.5984495876E+00
                       4.6213198586E+00  1.5024998852E+00  9.5430112190E-01
                       1.7855146088E+00  2.1943613480E-01  1.2540118442E+00
                       5.1659996055E+00  0.0000000000E+00  2.3459998207E+00
                       2.3521219091E+00  4.5074996556E+00  2.2910690789E+00
                       4.1744283469E+00  4.5074996556E+00  4.3379267836E+00
                       4.1029203480E+00  4.5074996556E+00  1.2524497669E+00
                       5.4467974690E-01  4.5074996556E+00  3.3003009426E+00
                       3.3804849967E+00  5.7905634061E+00  3.6000116649E+00
                       0.0000000000E+00  3.0049997704E+00  0.0000000000E+00
                       7.5181215146E+00  4.5074996556E+00  5.4930741802E-02
                       9.3404279524E+00  4.5074996556E+00  2.7000726786E+00
                       9.2689199535E+00  4.5074996556E+00  1.0935500539E+00
                       5.7106793524E+00  4.5074996556E+00  3.7376985196E+00
                       8.5464846022E+00  3.2244359052E+00  3.4379877973E+00
                       5.1659996055E+00  3.0049997704E+00  2.3459998207E+00
                       7.9798773019E+00  1.5024998852E+00  2.4009305625E+00
                       6.1575708641E+00  1.5024998852E+00  3.5407285784E-01
                       6.2290788630E+00  1.5024998852E+00  3.4395498746E+00
                       9.7873194641E+00  1.5024998852E+00  1.3916986988E+00
                       6.9515142143E+00  2.7855636356E+00  1.0919879766E+00
                       8.5464846022E+00  5.7905634061E+00  3.4379877973E+00
                       6.9515142143E+00  2.1943613480E-01  1.0919879766E+00
                       1.7855146088E+00  2.7855636356E+00  1.2540118442E+00
                       3.3804849967E+00  3.2244359052E+00  3.6000116649E+00
           xangst2     0.0000000000E+00  0.0000000000E+00  0.0000000000E+00
                       2.7069113536E+00  1.4625869152E+00  4.6177687479E+00
                       9.5899970805E-01  1.4625869152E+00  1.9550575067E+00
                       9.8869890371E-01  1.4625869152E+00  3.5396269137E+00
                       4.5051474153E+00  1.4625869152E+00  9.4310339500E-01
                       1.7108505707E+00  1.6702273466E-01  1.2432658870E+00
                       5.0375687443E+00  0.0000000000E+00  2.3109094245E+00
                       2.3306573907E+00  4.3877607455E+00  2.3068593235E+00
                       4.0785690363E+00  4.3877607455E+00  4.2659669312E+00
                       4.0488698406E+00  4.3877607455E+00  1.2287174892E+00
                       5.3242132901E-01  4.3877607455E+00  3.2540128195E+00
                       3.3267181736E+00  5.6833249260E+00  3.5541753115E+00
                       0.0000000000E+00  2.9251738303E+00  0.0000000000E+00
                       7.3682261350E+00  4.3877607455E+00  4.0501009838E-03
                       9.1161377806E+00  4.3877607455E+00  2.6667613422E+00
                       9.0864385849E+00  4.3877607455E+00  1.0821919352E+00
                       5.5699900733E+00  4.3877607455E+00  3.6787154539E+00
                       8.3642869179E+00  3.0921965650E+00  3.3785529619E+00
                       5.0375687443E+00  2.9251738303E+00  2.3109094245E+00
                       7.7444800979E+00  1.4625869152E+00  2.3149595254E+00
                       5.9965684524E+00  1.4625869152E+00  3.5585191774E-01
                       6.0262676480E+00  1.4625869152E+00  3.3931013597E+00
                       9.5427161596E+00  1.4625869152E+00  1.3678060295E+00
                       6.7484193150E+00  2.7581510957E+00  1.0676435374E+00
                       8.3642869179E+00  5.6833249260E+00  3.3785529619E+00
                       6.7484193150E+00  1.6702273466E-01  1.0676435374E+00
                       1.7108505707E+00  2.7581510957E+00  1.2432658870E+00
                       3.3267181736E+00  3.0921965650E+00  3.5541753115E+00
            xcart1     0.0000000000E+00  0.0000000000E+00  0.0000000000E+00
                       5.3174582177E+00  2.8393132977E+00  8.7627902797E+00
                       1.8737981200E+00  2.8393132977E+00  3.7641964366E+00
                       2.0089286543E+00  2.8393132977E+00  6.8000842236E+00
                       8.7330289052E+00  2.8393132977E+00  1.8033677687E+00
                       3.3741336170E+00  4.1467419843E-01  2.3697389528E+00
                       9.7623244570E+00  0.0000000000E+00  4.4332971690E+00
                       4.4448662393E+00  8.5179398933E+00  4.3294931107E+00
                       7.8885263370E+00  8.5179398933E+00  8.1974936056E+00
                       7.7533958027E+00  8.5179398933E+00  2.3667870546E+00
                       1.0292955518E+00  8.5179398933E+00  6.2366649377E+00
                       6.3881908400E+00  1.0942578993E+01  6.8030361218E+00
                       0.0000000000E+00  5.6786265955E+00  0.0000000000E+00
                       1.4207190696E+01  8.5179398933E+00  1.0380405828E-01
                       1.7650850794E+01  8.5179398933E+00  5.1023979014E+00
                       1.7515720260E+01  8.5179398933E+00  2.0665101144E+00
                       1.0791620009E+01  8.5179398933E+00  7.0632265693E+00
                       1.6150515297E+01  6.0933007939E+00  6.4968553852E+00
                       9.7623244570E+00  5.6786265955E+00  4.4332971690E+00
                       1.5079782675E+01  2.8393132977E+00  4.5371012273E+00
                       1.1636122577E+01  2.8393132977E+00  6.6910073241E-01
                       1.1771253111E+01  2.8393132977E+00  6.4998072834E+00
                       1.8495353362E+01  2.8393132977E+00  2.6299294003E+00
                       1.3136458074E+01  5.2639523971E+00  2.0635582162E+00
                       1.6150515297E+01  1.0942578993E+01  6.4968553852E+00
                       1.3136458074E+01  4.1467419843E-01  2.0635582162E+00
                       3.3741336170E+00  5.2639523971E+00  2.3697389528E+00
                       6.3881908400E+00  6.0933007939E+00  6.8030361218E+00
            xcart2     0.0000000000E+00  0.0000000000E+00  0.0000000000E+00
                       5.1153211244E+00  2.7638887152E+00  8.7263182786E+00
                       1.8122468097E+00  2.7638887152E+00  3.6945232617E+00
                       1.8683701559E+00  2.7638887152E+00  6.6889254794E+00
                       8.5134948032E+00  2.7638887152E+00  1.7822071315E+00
                       3.2330390329E+00  3.1562722646E-01  2.3494320368E+00
                       9.5196253023E+00  0.0000000000E+00  4.3669859301E+00
                       4.4043041779E+00  8.2916661457E+00  4.3593323485E+00
                       7.7073784926E+00  8.2916661457E+00  8.0615091919E+00
                       7.6512551464E+00  8.2916661457E+00  2.3219395493E+00
                       1.0061304991E+00  8.2916661457E+00  6.1491930617E+00
                       6.2865862694E+00  1.0739927634E+01  6.7164179669E+00
                       0.0000000000E+00  5.5277774304E+00  0.0000000000E+00
                       1.3923929480E+01  8.2916661457E+00  7.6535816700E-03
                       1.7227003795E+01  8.2916661457E+00  5.0394485985E+00
                       1.7170880449E+01  8.2916661457E+00  2.0450463808E+00
                       1.0525755801E+01  8.2916661457E+00  6.9517647287E+00
                       1.5806211572E+01  5.8434046569E+00  6.3845398234E+00
                       9.5196253023E+00  5.5277774304E+00  4.3669859301E+00
                       1.4634946427E+01  2.7638887152E+00  4.3746395118E+00
                       1.1331872112E+01  2.7638887152E+00  6.7246266840E-01
                       1.1387995458E+01  2.7638887152E+00  6.4120323110E+00
                       1.8033120106E+01  2.7638887152E+00  2.5847787986E+00
                       1.2752664335E+01  5.2121502040E+00  2.0175538933E+00
                       1.5806211572E+01  1.0739927634E+01  6.3845398234E+00
                       1.2752664335E+01  3.1562722646E-01  2.0175538933E+00
                       3.2330390329E+00  5.2121502040E+00  2.3494320368E+00
                       6.2865862694E+00  5.8434046569E+00  6.7164179669E+00
             xred1     0.0000000000E+00  0.0000000000E+00  0.0000000000E+00
                       2.7234590702E-01  2.5000000000E-01  9.8829267988E-01
                       9.5970899569E-02  2.5000000000E-01  4.2453689580E-01
                       1.0289192206E-01  2.5000000000E-01  7.6693304829E-01
                       4.4728225044E-01  2.5000000000E-01  2.0338900145E-01
                       1.7281404812E-01  3.6511838862E-02  2.6726597186E-01
                       5.0000000000E-01  0.0000000000E+00  5.0000000000E-01
                       2.2765409298E-01  7.5000000000E-01  4.8829267988E-01
                       4.0402910043E-01  7.5000000000E-01  9.2453689580E-01
                       3.9710807794E-01  7.5000000000E-01  2.6693304829E-01
                       5.2717749564E-02  7.5000000000E-01  7.0338900145E-01
                       3.2718595188E-01  9.6348816114E-01  7.6726597186E-01
                       0.0000000000E+00  5.0000000000E-01  0.0000000000E+00
                       7.2765409298E-01  7.5000000000E-01  1.1707320119E-02
                       9.0402910043E-01  7.5000000000E-01  5.7546310420E-01
                       8.9710807794E-01  7.5000000000E-01  2.3306695171E-01
                       5.5271774956E-01  7.5000000000E-01  7.9661099855E-01
                       8.2718595188E-01  5.3651183886E-01  7.3273402814E-01
                       5.0000000000E-01  5.0000000000E-01  5.0000000000E-01
                       7.7234590702E-01  2.5000000000E-01  5.1170732012E-01
                       5.9597089957E-01  2.5000000000E-01  7.5463104198E-02
                       6.0289192206E-01  2.5000000000E-01  7.3306695171E-01
                       9.4728225044E-01  2.5000000000E-01  2.9661099855E-01
                       6.7281404812E-01  4.6348816114E-01  2.3273402814E-01
                       8.2718595188E-01  9.6348816114E-01  7.3273402814E-01
                       6.7281404812E-01  3.6511838862E-02  2.3273402814E-01
                       1.7281404812E-01  4.6348816114E-01  2.6726597186E-01
                       3.2718595188E-01  5.3651183886E-01  7.6726597186E-01
             xred2     0.0000000000E+00  0.0000000000E+00  0.0000000000E+00
                       2.6867239844E-01  2.5000000000E-01  9.9912369976E-01
                       9.5184776300E-02  2.5000000000E-01  4.2300608713E-01
                       9.8132547057E-02  2.5000000000E-01  7.6585150335E-01
                       4.4715493167E-01  2.5000000000E-01  2.0405459968E-01
                       1.6980915374E-01  2.8549198158E-02  2.6899926796E-01
                       5.0000000000E-01  0.0000000000E+00  5.0000000000E-01
                       2.3132760156E-01  7.5000000000E-01  4.9912369976E-01
                       4.0481522370E-01  7.5000000000E-01  9.2300608713E-01
                       4.0186745294E-01  7.5000000000E-01  2.6585150335E-01
                       5.2845068329E-02  7.5000000000E-01  7.0405459968E-01
                       3.3019084626E-01  9.7145080184E-01  7.6899926796E-01
                       0.0000000000E+00  5.0000000000E-01  0.0000000000E+00
                       7.3132760156E-01  7.5000000000E-01  8.7630024374E-04
                       9.0481522370E-01  7.5000000000E-01  5.7699391287E-01
                       9.0186745294E-01  7.5000000000E-01  2.3414849665E-01
                       5.5284506833E-01  7.5000000000E-01  7.9594540032E-01
                       8.3019084626E-01  5.2854919816E-01  7.3100073204E-01
                       5.0000000000E-01  5.0000000000E-01  5.0000000000E-01
                       7.6867239844E-01  2.5000000000E-01  5.0087630024E-01
                       5.9518477630E-01  2.5000000000E-01  7.6993912867E-02
                       5.9813254706E-01  2.5000000000E-01  7.3414849665E-01
                       9.4715493167E-01  2.5000000000E-01  2.9594540032E-01
                       6.6980915374E-01  4.7145080184E-01  2.3100073204E-01
                       8.3019084626E-01  9.7145080184E-01  7.3100073204E-01
                       6.6980915374E-01  2.8549198158E-02  2.3100073204E-01
                       1.6980915374E-01  4.7145080184E-01  2.6899926796E-01
                       3.3019084626E-01  5.2854919816E-01  7.6899926796E-01
            znucl        3.00000   26.00000   15.00000    8.00000

 Suggested references for the acknowledgment of ABINIT usage.

 [1] Ab initio pseudopotentials for electronic structure calculations of poly-atomic systems,
 using density-functional theory.
 M. Fuchs, M. Scheffler, Comput. Phys. Commun. 119, 67 (1999).
 Comment : Some pseudopotential generated using the FHI code were used.

 [2] ABINIT : First-principles approach of materials and nanosystem properties.
 X. Gonze, B. Amadon, P.-M. Anglade, J.-M. Beuken, F. Bottin, P. Boulanger, F. Bruneval,
 D. Caliste, R. Caracas, M. Cote, T. Deutsch, L. Genovese, Ph. Ghosez, M. Giantomassi
 S. Goedecker, D.R. Hamann, P. Hermet, F. Jollet, G. Jomard, S. Leroux, M. Mancini, S. Mazevet,
 M.J.T. Oliveira, G. Onida, Y. Pouillon, T. Rangel, G.-M. Rignanese, D. Sangalli, R. Shaltaf,
 M. Torrent, M.J. Verstraete, G. Zerah, J.W. Zwanziger
 Computer Phys. Comm. 180, 2582-2615 (2009).
 Comment : the third generic paper describing the ABINIT project.
 Note that a version of this paper, that is not formatted for Computer Phys. Comm.
 The licence allows the authors to put it on the Web.

 [3] A brief introduction to the ABINIT software package.
 X. Gonze, G.-M. Rignanese, M. Verstraete, J.-M. Beuken, Y. Pouillon, R. Caracas, F. Jollet,
 M. Torrent, G. Zerah, M. Mikami, Ph. Ghosez, M. Veithen, J.-Y. Raty, V. Olevano, F. Bruneval,
 L. Reining, R. Godby, G. Onida, D.R. Hamann, and D.C. Allan.
 Z. Kristallogr. 220, 558-562 (2005).
 Comment : the second generic paper describing the ABINIT project. Note that this paper
 should be cited especially if you are using the GW part of ABINIT, as several authors
 of this part are not in the list of authors of the first or third paper.
 Note that it should not redistributed (Copyright by Oldenburg Wissenshaftverlag,
 the licence allows the authors to put it on the Web).

 And optionally :

 [4] First-principles computation of material properties : the ABINIT software project.
 X. Gonze, J.-M. Beuken, R. Caracas, F. Detraux, M. Fuchs, G.-M. Rignanese, L. Sindic,
 M. Verstraete, G. Zerah, F. Jollet, M. Torrent, A. Roy, M. Mikami, Ph. Ghosez, J.-Y. Raty, D.C. Allan.
 Comment : the original paper describing the ABINIT project.

 [5] Fast radix 2, 3, 4 and 5 kernels for Fast Fourier Transformations
 on computers with overlapping multiply-add instructions.
 S. Goedecker, SIAM J. on Scientific Computing 18, 1605 (1997).

 Calculation completed.
.Delivered    3 WARNINGs and   0 COMMENTs to log file.
--- !FinalSummary
start_date: Thu Jul 31  0:14:29 2014
end_date: Thu Jul 31  2:10:12 2014
overall_cpu_time:      272732.6
overall_wall_time:      277690.6
...