.Version 6.4.3  of ABINIT

 ABINIT is a project of the Universite Catholique de Louvain,
 Corning Inc. and other collaborators, see ~abinit/doc/developers/contributors.txt .
 Please read ~abinit/doc/users/acknowledgments.html for suggested
 acknowledgments of the ABINIT effort.

.Starting date : Sun 27 Feb 2011.
- ( at 20h44 )

 === Build Information ===
  Version       : 6.4.3
  Build target  : i686_cygwin_gnu4.3
  Build date    : 20110215

 === Optimizations ===
  Debug level        : no
  Optimization level : aggressive
  Architecture       : _

  Parallel build : yes
  Parallel I/O   : yes

 === Plug-ins ===
  BigDFT    : yes
  ETSF I/O  : yes
  FoX       : no
  NetCDF    : yes
  Wannier90 : yes

 === Experimental features ===
  Bindings            : no
  Exports             : no
  GW double-precision : no
  Macroave build      : yes

 Default optimizations:
   -O3 -mtune=native -march=native

 CPP options activated during the build:

                    CC_GNU                   CXX_GNU                    FC_GNU

               HAVE_BIGDFT              HAVE_ETSF_IO              HAVE_FC_EXIT

             HAVE_FC_FLUSH             HAVE_FC_GAMMA            HAVE_FC_GETENV

     HAVE_FC_ISO_C_BINDING        HAVE_FC_LONG_LINES              HAVE_FC_NULL

                 HAVE_MPI2               HAVE_MPI_IO               HAVE_NETCDF

              HAVE_STDIO_H            HAVE_WANNIER90              USE_MACROAVE

- input  file    -> Ni_GammaP.in
- output file    -> Ni_GammaP.out
- root for input  files -> Nii
- root for output files -> Ni_GammaPo

 instrng :    82 lines of input have been read

 iofn2 : Please give name of formatted atomic psp file
 iofn2 : for atom type   1 , psp file is ni.fhi
-P-0000   read the values zionpsp= 10.0 , pspcod=   6 , lmax=   3
-P-0000
-P-0000  inpspheads : deduce mpsang  =   4, n1xccc  =   0.
-P-0000  leave_test : synchronization done...

 invars1m : enter jdtset=     0
 invars1 : treat image number     1

 symlatt : the Bravais lattice is cF (face-centered cubic)
  xred   is defined in input file
 ingeo : takes atomic coordinates from input array xred

 symlatt : the Bravais lattice is cF (face-centered cubic)

 symlatt : the Bravais lattice is cF (face-centered cubic)
 symspgr : the symmetry operation no.   1 is the identity
 symspgr : the symmetry operation no.   2 is an inversion
 symaxes : the symmetry operation no.   3 is a 2-axis
 symplanes : the symmetry operation no.   4 is a mirror plane
 symaxes : the symmetry operation no.   5 is a 2-axis
 symplanes : the symmetry operation no.   6 is a mirror plane
 symaxes : the symmetry operation no.   7 is a 2-axis
 symplanes : the symmetry operation no.   8 is a mirror plane
 symplanes : the symmetry operation no.   9 is a mirror plane
 symaxes : the symmetry operation no.  10 is a 2-axis
 symspgr : the symmetry operation no.  11 is a -4 axis
 symaxes : the symmetry operation no.  12 is a 4-axis
 symplanes : the symmetry operation no.  13 is a mirror plane
 symaxes : the symmetry operation no.  14 is a 2-axis
 symspgr : the symmetry operation no.  15 is a -4 axis
 symaxes : the symmetry operation no.  16 is a 4-axis
 symaxes : the symmetry operation no.  17 is a 3-axis
 symspgr : the symmetry operation no.  18 is a -3 axis
 symaxes : the symmetry operation no.  19 is a 3-axis
 symspgr : the symmetry operation no.  20 is a -3 axis
 symaxes : the symmetry operation no.  21 is a 3-axis
 symspgr : the symmetry operation no.  22 is a -3 axis
 symaxes : the symmetry operation no.  23 is a 3-axis
 symspgr : the symmetry operation no.  24 is a -3 axis
 symplanes : the symmetry operation no.  25 is a mirror plane
 symaxes : the symmetry operation no.  26 is a 2-axis
 symspgr : the symmetry operation no.  27 is a -4 axis
 symaxes : the symmetry operation no.  28 is a 4-axis
 symspgr : the symmetry operation no.  29 is a -4 axis
 symaxes : the symmetry operation no.  30 is a 4-axis
 symplanes : the symmetry operation no.  31 is a mirror plane
 symaxes : the symmetry operation no.  32 is a 2-axis
 symaxes : the symmetry operation no.  33 is a 3-axis
 symspgr : the symmetry operation no.  34 is a -3 axis
 symaxes : the symmetry operation no.  35 is a 3-axis
 symspgr : the symmetry operation no.  36 is a -3 axis
 symaxes : the symmetry operation no.  37 is a 3-axis
 symspgr : the symmetry operation no.  38 is a -3 axis
 symaxes : the symmetry operation no.  39 is a 3-axis
 symspgr : the symmetry operation no.  40 is a -3 axis
 symplanes : the symmetry operation no.  41 is a mirror plane
 symaxes : the symmetry operation no.  42 is a 2-axis
 symplanes : the symmetry operation no.  43 is a mirror plane
 symaxes : the symmetry operation no.  44 is a 2-axis
 symspgr : the symmetry operation no.  45 is a -4 axis
 symaxes : the symmetry operation no.  46 is a 4-axis
 symspgr : the symmetry operation no.  47 is a -4 axis
 symaxes : the symmetry operation no.  48 is a 4-axis
 symspgr : the symmetry operation no.  49 is a pure translation
 symspgr : the symmetry operation no.  50 is an inversion
 symaxes : the symmetry operation no.  51 is a 2_1-axis
 symplanes : the symmetry operation no.  52 is a primary n plane
 symaxes : the symmetry operation no.  53 is a 2_1-axis
 symplanes : the symmetry operation no.  54 is a primary n plane
 symaxes : the symmetry operation no.  55 is a 2-axis
 symplanes : the symmetry operation no.  56 is a primary n plane
 symplanes : the symmetry operation no.  57 is a tertiary m plane
 symaxes : the symmetry operation no.  58 is a 2_1-axis
 symspgr : the symmetry operation no.  59 is a -4 axis
 symaxes : the symmetry operation no.  60 is a 4_2-axis
 symplanes : the symmetry operation no.  61 is a tertiary m plane
 symaxes : the symmetry operation no.  62 is a 2_1-axis
 symspgr : the symmetry operation no.  63 is a -4 axis
 symaxes : the symmetry operation no.  64 is a 4_2-axis
 symaxes : the symmetry operation no.  65 is a 3, 3_1 or 3_2 axis
 symspgr : the symmetry operation no.  66 is a -3 axis
 symaxes : the symmetry operation no.  67 is a 3-axis
 symspgr : the symmetry operation no.  68 is a -3 axis
 symaxes : the symmetry operation no.  69 is a 3, 3_1 or 3_2 axis
 symspgr : the symmetry operation no.  70 is a -3 axis
 symaxes : the symmetry operation no.  71 is a 3-axis
 symspgr : the symmetry operation no.  72 is a -3 axis
 symplanes : the symmetry operation no.  73 is a tertiary m plane
 symaxes : the symmetry operation no.  74 is a 2-axis
 symspgr : the symmetry operation no.  75 is a -4 axis
 symaxes : the symmetry operation no.  76 is a 4-axis
 symspgr : the symmetry operation no.  77 is a -4 axis
 symaxes : the symmetry operation no.  78 is a 4-axis
 symplanes : the symmetry operation no.  79 is a mirror plane
 symaxes : the symmetry operation no.  80 is a 2-axis
 symaxes : the symmetry operation no.  81 is a 3, 3_1 or 3_2 axis
 symspgr : the symmetry operation no.  82 is a -3 axis
 symaxes : the symmetry operation no.  83 is a 3, 3_1 or 3_2 axis
 symspgr : the symmetry operation no.  84 is a -3 axis
 symaxes : the symmetry operation no.  85 is a 3-axis
 symspgr : the symmetry operation no.  86 is a -3 axis
 symaxes : the symmetry operation no.  87 is a 3-axis
 symspgr : the symmetry operation no.  88 is a -3 axis
 symplanes : the symmetry operation no.  89 is a tertiary m plane
 symaxes : the symmetry operation no.  90 is a 2_1-axis
 symplanes : the symmetry operation no.  91 is a tertiary m plane
 symaxes : the symmetry operation no.  92 is a 2_1-axis
 symspgr : the symmetry operation no.  93 is a -4 axis
 symaxes : the symmetry operation no.  94 is a 4_2-axis
 symspgr : the symmetry operation no.  95 is a -4 axis
 symaxes : the symmetry operation no.  96 is a 4_2-axis
 symspgr : the symmetry operation no.  97 is a pure translation
 symspgr : the symmetry operation no.  98 is an inversion
 symaxes : the symmetry operation no.  99 is a 2-axis
 symplanes : the symmetry operation no. 100 is a primary n plane
 symaxes : the symmetry operation no. 101 is a 2_1-axis
 symplanes : the symmetry operation no. 102 is a primary n plane
 symaxes : the symmetry operation no. 103 is a 2_1-axis
 symplanes : the symmetry operation no. 104 is a primary n plane
 symplanes : the symmetry operation no. 105 is a tertiary m plane
 symaxes : the symmetry operation no. 106 is a 2_1-axis
 symspgr : the symmetry operation no. 107 is a -4 axis
 symaxes : the symmetry operation no. 108 is a 4_2-axis
 symplanes : the symmetry operation no. 109 is a tertiary m plane
 symaxes : the symmetry operation no. 110 is a 2_1-axis
 symspgr : the symmetry operation no. 111 is a -4 axis
 symaxes : the symmetry operation no. 112 is a 4_2-axis
 symaxes : the symmetry operation no. 113 is a 3, 3_1 or 3_2 axis
 symspgr : the symmetry operation no. 114 is a -3 axis
 symaxes : the symmetry operation no. 115 is a 3-axis
 symspgr : the symmetry operation no. 116 is a -3 axis
 symaxes : the symmetry operation no. 117 is a 3-axis
 symspgr : the symmetry operation no. 118 is a -3 axis
 symaxes : the symmetry operation no. 119 is a 3, 3_1 or 3_2 axis
 symspgr : the symmetry operation no. 120 is a -3 axis
 symplanes : the symmetry operation no. 121 is a tertiary m plane
 symaxes : the symmetry operation no. 122 is a 2_1-axis
 symspgr : the symmetry operation no. 123 is a -4 axis
 symaxes : the symmetry operation no. 124 is a 4_2-axis
 symspgr : the symmetry operation no. 125 is a -4 axis
 symaxes : the symmetry operation no. 126 is a 4_2-axis
 symplanes : the symmetry operation no. 127 is a tertiary m plane
 symaxes : the symmetry operation no. 128 is a 2_1-axis
 symaxes : the symmetry operation no. 129 is a 3, 3_1 or 3_2 axis
 symspgr : the symmetry operation no. 130 is a -3 axis
 symaxes : the symmetry operation no. 131 is a 3-axis
 symspgr : the symmetry operation no. 132 is a -3 axis
 symaxes : the symmetry operation no. 133 is a 3, 3_1 or 3_2 axis
 symspgr : the symmetry operation no. 134 is a -3 axis
 symaxes : the symmetry operation no. 135 is a 3-axis
 symspgr : the symmetry operation no. 136 is a -3 axis
 symplanes : the symmetry operation no. 137 is a tertiary m plane
 symaxes : the symmetry operation no. 138 is a 2-axis
 symplanes : the symmetry operation no. 139 is a mirror plane
 symaxes : the symmetry operation no. 140 is a 2-axis
 symspgr : the symmetry operation no. 141 is a -4 axis
 symaxes : the symmetry operation no. 142 is a 4-axis
 symspgr : the symmetry operation no. 143 is a -4 axis
 symaxes : the symmetry operation no. 144 is a 4-axis
 symspgr : the symmetry operation no. 145 is a pure translation
 symspgr : the symmetry operation no. 146 is an inversion
 symaxes : the symmetry operation no. 147 is a 2_1-axis
 symplanes : the symmetry operation no. 148 is a primary n plane
 symaxes : the symmetry operation no. 149 is a 2-axis
 symplanes : the symmetry operation no. 150 is a primary n plane
 symaxes : the symmetry operation no. 151 is a 2_1-axis
 symplanes : the symmetry operation no. 152 is a primary n plane
 symplanes : the symmetry operation no. 153 is a tertiary m plane
 symaxes : the symmetry operation no. 154 is a 2-axis
 symspgr : the symmetry operation no. 155 is a -4 axis
[...]
                     0.999126  0.959004  0.949761  0.949616  0.906021  0.894450
                     0.000000  0.000000  0.000000  0.000000
                     0.997478  0.964212  0.945333  0.944192  0.903525  0.886601
                     0.000024  0.000000  0.000000  0.000000
                     0.998475  0.965358  0.942658  0.942192  0.916615  0.886936
                     0.000001  0.000000  0.000000  0.000000
                     0.998017  0.965384  0.944642  0.941780  0.913256  0.883717
                     0.000004  0.000001  0.000000  0.000000
                     0.998475  0.965358  0.942658  0.942192  0.916615  0.886936
                     0.000001  0.000000  0.000000  0.000000
                     0.998475  0.965358  0.942658  0.942192  0.916615  0.886936
                     0.000001  0.000000  0.000000  0.000000
                     0.998017  0.965384  0.944642  0.941780  0.913256  0.883717
                     0.000004  0.000001  0.000000  0.000000
                     0.997478  0.964212  0.945333  0.944192  0.903525  0.886601
                     0.000024  0.000000  0.000000  0.000000
                     0.998017  0.965384  0.944642  0.941780  0.913256  0.883717
                     0.000004  0.000001  0.000000  0.000000
                     0.998017  0.965384  0.944642  0.941780  0.913256  0.883717
                     0.000004  0.000001  0.000000  0.000000
                     0.997478  0.964212  0.945333  0.944192  0.903525  0.886601
                     0.000024  0.000000  0.000000  0.000000
                     0.992176  0.950892  0.947172  0.946770  0.860933  0.854877
                     0.001851  0.000000  0.000000  0.000000
                     0.995067  0.968905  0.947795  0.938016  0.885542  0.870159
                     0.000090  0.000000  0.000000  0.000000
                     0.993206  0.963638  0.950679  0.941301  0.888671  0.838031
                     0.000413  0.000001  0.000000  0.000000
                     0.996759  0.972107  0.937274  0.929850  0.916100  0.876383
                     0.000003  0.000001  0.000000  0.000000
                     0.995917  0.971220  0.945668  0.930891  0.906852  0.865565
                     0.000016  0.000002  0.000000  0.000000
                     0.993801  0.969846  0.951001  0.930756  0.911667  0.825600
                     0.000073  0.000009  0.000000  0.000000
                     0.996759  0.972107  0.937274  0.929850  0.916100  0.876383
                     0.000003  0.000001  0.000000  0.000000
                     0.996759  0.972107  0.937274  0.929850  0.916100  0.876383
                     0.000003  0.000001  0.000000  0.000000
                     0.995917  0.971220  0.945668  0.930891  0.906852  0.865565
                     0.000016  0.000002  0.000000  0.000000
                     0.993801  0.969846  0.951001  0.930756  0.911667  0.825600
                     0.000073  0.000009  0.000000  0.000000
                     0.995067  0.968905  0.947795  0.938016  0.885542  0.870159
                     0.000090  0.000000  0.000000  0.000000
                     0.995917  0.971220  0.945668  0.930891  0.906852  0.865565
                     0.000016  0.000002  0.000000  0.000000
                     0.995917  0.971220  0.945668  0.930891  0.906852  0.865565
                     0.000016  0.000002  0.000000  0.000000
                     0.995067  0.968905  0.947795  0.938016  0.885542  0.870159
                     0.000090  0.000000  0.000000  0.000000
                     0.993206  0.963638  0.950679  0.941301  0.888671  0.838031
                     0.000413  0.000001  0.000000  0.000000
                     0.992176  0.950892  0.947172  0.946770  0.860933  0.854877
                     0.001851  0.000000  0.000000  0.000000
                     0.993206  0.963638  0.950679  0.941301  0.888671  0.838031
                     0.000413  0.000001  0.000000  0.000000
                     0.993801  0.969846  0.951001  0.930756  0.911667  0.825600
[...]
                     0.000225  0.000027  0.000001  0.000000
                     0.984212  0.969197  0.962775  0.922318  0.898181  0.596870
                     0.000846  0.000087  0.000001  0.000000
                     0.993068  0.977820  0.932755  0.911754  0.888920  0.863987
                     0.000011  0.000003  0.000002  0.000000
                     0.993068  0.977820  0.932755  0.911754  0.888920  0.863987
                     0.000011  0.000003  0.000002  0.000000
                     0.991604  0.976493  0.947724  0.914699  0.881245  0.828189
                     0.000051  0.000008  0.000002  0.000000
                     0.988445  0.973626  0.957670  0.917364  0.892863  0.740897
                     0.000225  0.000027  0.000001  0.000000
                     0.984212  0.969197  0.962775  0.922318  0.898181  0.596870
                     0.000846  0.000087  0.000001  0.000000
                     0.990546  0.973842  0.951381  0.927579  0.854124  0.817153
                     0.000281  0.000002  0.000002  0.000000
                       prtocc : prtvol=0, do not print more k-points.
                     0.991604  0.976493  0.947724  0.914699  0.881245  0.828189
                     0.000051  0.000008  0.000002  0.000000
                     0.991604  0.976493  0.947724  0.914699  0.881245  0.828189
                     0.000051  0.000008  0.000002  0.000000
                     0.990546  0.973842  0.951381  0.927579  0.854124  0.817153
                     0.000281  0.000002  0.000002  0.000000
                     0.988809  0.967240  0.956148  0.933403  0.863843  0.742725
                     0.001254  0.000003  0.000001  0.000000
                     0.986939  0.960579  0.956238  0.936489  0.875134  0.608710
                     0.004383  0.000010  0.000000  0.000000
                     0.989099  0.958257  0.948654  0.942474  0.847288  0.721275
                     0.005327  0.000001  0.000000  0.000000
                     0.988809  0.967240  0.956148  0.933403  0.863843  0.742725
                     0.001254  0.000003  0.000001  0.000000
                     0.988445  0.973626  0.957670  0.917364  0.892863  0.740897
                     0.000225  0.000027  0.000001  0.000000
                     0.988445  0.973626  0.957670  0.917364  0.892863  0.740897
                     0.000225  0.000027  0.000001  0.000000
                     0.988809  0.967240  0.956148  0.933403  0.863843  0.742725
                     0.001254  0.000003  0.000001  0.000000
                     0.989099  0.958257  0.948654  0.942474  0.847288  0.721275
                     0.005327  0.000001  0.000000  0.000000
                     0.988943  0.957113  0.946343  0.929795  0.854385  0.637590
                     0.015791  0.000001  0.000000  0.000000
                     0.989898  0.954562  0.950782  0.893485  0.846725  0.676452
                     0.031849  0.000000  0.000000  0.000000
                     0.988943  0.957113  0.946343  0.929795  0.854385  0.637590
                     0.015791  0.000001  0.000000  0.000000
                     0.986939  0.960579  0.956238  0.936489  0.875134  0.608710
                     0.004383  0.000010  0.000000  0.000000
                     0.984212  0.969197  0.962775  0.922318  0.898181  0.596870
                     0.000846  0.000087  0.000001  0.000000
                     0.984212  0.969197  0.962775  0.922318  0.898181  0.596870
                     0.000846  0.000087  0.000001  0.000000
                     0.986939  0.960579  0.956238  0.936489  0.875134  0.608710
                     0.004383  0.000010  0.000000  0.000000
                     0.988943  0.957113  0.946343  0.929795  0.854385  0.637590
                     0.015791  0.000001  0.000000  0.000000
                     0.989898  0.954562  0.950782  0.893485  0.846725  0.676452
                     0.031849  0.000000  0.000000  0.000000
                     0.990808  0.952315  0.949250  0.923722  0.868445  0.801509
                     0.006283  0.000000  0.000000  0.000000
                     0.988083  0.959217  0.945227  0.928799  0.854459  0.488634
                     0.029494  0.000003  0.000000  0.000000
                     0.988943  0.957113  0.946343  0.929795  0.854385  0.637590
                     0.015791  0.000001  0.000000  0.000000
                     0.985723  0.967215  0.951381  0.933171  0.844340  0.424655
                     0.012017  0.000009  0.000001  0.000000
                     0.986270  0.963872  0.944304  0.938398  0.850942  0.359463
                     0.027152  0.000005  0.000002  0.000000
                     0.986270  0.963872  0.944304  0.938398  0.850942  0.359463
                     0.027152  0.000005  0.000002  0.000000
                     0.986407  0.978234  0.946147  0.912341  0.843026  0.632069
                     0.000714  0.000021  0.000005  0.000000
                     0.984742  0.973152  0.955801  0.920643  0.849656  0.495378
                     0.003082  0.000015  0.000007  0.000000
                     0.983251  0.968861  0.958342  0.925942  0.860181  0.326626
                     0.010074  0.000023  0.000006  0.000000
                     0.982566  0.969835  0.955391  0.926446  0.860910  0.185675
                     0.022297  0.000053  0.000003  0.000000
[...]
                     0.000134  0.000029  0.000017  0.000000
                     0.987546  0.980501  0.938436  0.893125  0.858341  0.701820
                     0.000134  0.000029  0.000017  0.000000
                     0.986407  0.978234  0.946147  0.912341  0.843026  0.632069
                     0.000714  0.000021  0.000005  0.000000
                     0.984742  0.973152  0.955801  0.920643  0.849656  0.495378
                     0.003082  0.000015  0.000007  0.000000
                     0.983251  0.968861  0.958342  0.925942  0.860181  0.326626
                     0.010074  0.000023  0.000006  0.000000
                     0.982566  0.969835  0.955391  0.926446  0.860910  0.185675
                     0.022297  0.000053  0.000003  0.000000
                     0.985723  0.967215  0.951381  0.933171  0.844340  0.424655
                     0.012017  0.000009  0.000001  0.000000
                     0.984742  0.973152  0.955801  0.920643  0.849656  0.495378
                     0.003082  0.000015  0.000007  0.000000
                       prtocc : prtvol=0, do not print more k-points.
           occopt         3
        optdriver         1
            rfdir         1       1       1
           rfphon         1
            rprim    0.0000000000E+00  5.0000000000E-01  5.0000000000E-01
                     5.0000000000E-01  0.0000000000E+00  5.0000000000E-01
                     5.0000000000E-01  5.0000000000E-01  0.0000000000E+00
           shiftk    5.00000000E-01  5.00000000E-01  5.00000000E-01
          spgroup       225
           spinat    0.0000000000E+00  0.0000000000E+00  4.0000000000E+00
           strten    0.0000000000E+00  0.0000000000E+00  0.0000000000E+00
                     0.0000000000E+00  0.0000000000E+00  0.0000000000E+00
           symrel    1  0  0   0  1  0   0  0  1      -1  0  0   0 -1  0   0  0 -1
                     0 -1  1   0 -1  0   1 -1  0       0  1 -1   0  1  0  -1  1  0
                    -1  0  0  -1  0  1  -1  1  0       1  0  0   1  0 -1   1 -1  0
                     0  1 -1   1  0 -1   0  0 -1       0 -1  1  -1  0  1   0  0  1
                    -1  0  0  -1  1  0  -1  0  1       1  0  0   1 -1  0   1  0 -1
                     0 -1  1   1 -1  0   0 -1  0       0  1 -1  -1  1  0   0  1  0
                     1  0  0   0  0  1   0  1  0      -1  0  0   0  0 -1   0 -1  0
                     0  1 -1   0  0 -1   1  0 -1       0 -1  1   0  0  1  -1  0  1
                    -1  0  1  -1  1  0  -1  0  0       1  0 -1   1 -1  0   1  0  0
                     0 -1  0   1 -1  0   0 -1  1       0  1  0  -1  1  0   0  1 -1
                     1  0 -1   0  0 -1   0  1 -1      -1  0  1   0  0  1   0 -1  1
                     0  1  0   0  0  1   1  0  0       0 -1  0   0  0 -1  -1  0  0
                     1  0 -1   0  1 -1   0  0 -1      -1  0  1   0 -1  1   0  0  1
                     0 -1  0   0 -1  1   1 -1  0       0  1  0   0  1 -1  -1  1  0
                    -1  0  1  -1  0  0  -1  1  0       1  0 -1   1  0  0   1 -1  0
                     0  1  0   1  0  0   0  0  1       0 -1  0  -1  0  0   0  0 -1
                     0  0 -1   0  1 -1   1  0 -1       0  0  1   0 -1  1  -1  0  1
                     1 -1  0   0 -1  1   0 -1  0      -1  1  0   0  1 -1   0  1  0
                     0  0  1   1  0  0   0  1  0       0  0 -1  -1  0  0   0 -1  0
                    -1  1  0  -1  0  0  -1  0  1       1 -1  0   1  0  0   1  0 -1
                     0  0  1   0  1  0   1  0  0       0  0 -1   0 -1  0  -1  0  0
                     1 -1  0   0 -1  0   0 -1  1      -1  1  0   0  1  0   0  1 -1
                     0  0 -1   1  0 -1   0  1 -1       0  0  1  -1  0  1   0 -1  1
                    -1  1  0  -1  0  1  -1  0  0       1 -1  0   1  0 -1   1  0  0
  tolsym=  1.00000000000000002E-008  1.00000000000000002E-008
           tolvrs    1.00000000E-08
           tsmear    5.00000000E-02 Hartree
            typat    1
              wtk      0.00098    0.00098    0.00098    0.00098    0.00098    0.00098
                       0.00098    0.00098    0.00098    0.00098    0.00098    0.00098
                       0.00098    0.00098    0.00098    0.00098    0.00098    0.00098
                       0.00098    0.00098    0.00098    0.00098    0.00098    0.00098
                       0.00098    0.00098    0.00098    0.00098    0.00098    0.00098
                       0.00098    0.00098    0.00098    0.00098    0.00098    0.00098
                       0.00098    0.00098    0.00098    0.00098    0.00098    0.00098
                       0.00098    0.00098    0.00098    0.00098    0.00098    0.00098
                       0.00098    0.00098
                       outvars : prtvol=0, do not print more k-points.
            znucl     28.00000

 Suggested references for the acknowledgment of ABINIT usage.

 [1] First-principles responses of solids to atomic displacements and homogeneous electric fields:,
 implementation of a conjugate-gradient algorithm. X. Gonze, Phys. Rev. B55, 10337 (1997).
 Comment : Non-vanishing rfphon and/or rfelfd, in the norm-conserving case.

 [2] Dynamical matrices, Born effective charges, dielectric permittivity tensors, and ,
 interatomic force constants from density-functional perturbation theory,
 X. Gonze and C. Lee, Phys. Rev. B55, 10355 (1997).
 Comment : Non-vanishing rfphon and/or rfelfd, in the norm-conserving case.

 [3] Ab initio pseudopotentials for electronic structure calculations of poly-atomic systems,
 using density-functional theory.
 M. Fuchs, M. Scheffler, Comput. Phys. Commun. 119, 67 (1999).
 Comment : Some pseudopotential generated using the FHI code were used.

 [4] ABINIT : First-principles approach of materials and nanosystem properties.
 X. Gonze, B. Amadon, P.-M. Anglade, J.-M. Beuken, F. Bottin, P. Boulanger, F. Bruneval,
 D. Caliste, R. Caracas, M. Cote, T. Deutsch, L. Genovese, Ph. Ghosez, M. Giantomassi
 S. Goedecker, D.R. Hamann, P. Hermet, F. Jollet, G. Jomard, S. Leroux, M. Mancini, S. Mazevet,
 M.J.T. Oliveira, G. Onida, Y. Pouillon, T. Rangel, G.-M. Rignanese, D. Sangalli, R. Shaltaf,
 M. Torrent, M.J. Verstraete, G. Zerah, J.W. Zwanziger
 Computer Phys. Comm. 180, 2582-2615 (2009).
 Comment : the third generic paper describing the ABINIT project.
 Note that a version of this paper, that is not formatted for Computer Phys. Comm.
 The licence allows the authors to put it on the Web.

 [5] A brief introduction to the ABINIT software package.
 X. Gonze, G.-M. Rignanese, M. Verstraete, J.-M. Beuken, Y. Pouillon, R. Caracas, F. Jollet,
 M. Torrent, G. Zerah, M. Mikami, Ph. Ghosez, M. Veithen, J.-Y. Raty, V. Olevano, F. Bruneval,
 L. Reining, R. Godby, G. Onida, D.R. Hamann, and D.C. Allan.
 Z. Kristallogr. 220, 558-562 (2005).
 Comment : the second generic paper describing the ABINIT project. Note that this paper
 should be cited especially if you are using the GW part of ABINIT, as several authors
 of this part are not in the list of authors of the first or third paper.
 Note that it should not redistributed (Copyright by Oldenburg Wissenshaftverlag,
 the licence allows the authors to put it on the Web).
  testfi : enter
 filnam(1)="Ni_GammaP.in"
 nam="testin_1.in"
 nam="testin_2.in"
 nam="testin_3.in"
 nam="testin_bigdft.in"
 nam="testin_etsf_io.in"
 nam="testin_wannier90.in"
  testfi : testin=            0

 Calculation completed.
.Delivered  485 WARNINGs and   0 COMMENTs to log file.