.Version 7.10.2 of ABINIT

 ABINIT is a project of the Universite Catholique de Louvain,
 Corning Inc. and other collaborators, see ~abinit/doc/developers/contributors.txt .
 Please read ~abinit/doc/users/acknowledgments.html for suggested
 acknowledgments of the ABINIT effort.

.Starting date : Fri 31 Jul 2015.
- ( at 01h07 )

- input  file    -> dos.in
- output file    -> dos.out
- root for input  files -> dosi
- root for output files -> doso

 Symmetries : space group P6/m m m (#191); Bravais hP (primitive hexag.)
   intxc =         0  ionmov =         0    iscf =         7 xclevel =         2
  lmnmax =         4   lnmax =         4   mband =        10  mffmem =         1
P  mgfft =        96   mkmem =       192 mpssoang=         4     mpw =      2796
  mqgrid =      4660   natom =         2    nfft =     55296    nkpt =       192
  nloalg =         4  nspden =         1 nspinor =         1  nsppol =         1
    nsym =        24  n1xccc =         0  ntypat =         1  occopt =         1
  Rough estimation (10% accuracy) of disk space for files :

------------- Echo of variables that govern the present computation ------------
-
- outvars: echo of selected default values
-   accesswff0 =  0 , fftalg0 =312 , wfoptalg0 =  0
-
- outvars: echo of global parameters not present in the input file
-  max_nthreads =    0
-
 -outvars: echo values of preprocessed input variables --------
            acell      4.6448095337E+00  4.6448095337E+00  1.8897160000E+01 Bohr
              amu      1.20110000E+01
             ecut      3.00000000E+01 Hartree
-          fftalg         312
           istwfk        2    0    0    0    0    0    0    0    0    0
                         0    0    0    0    0    0    0    0    0    0
                         0    0    0    0    0    0    0    0    0    0
                         0    0    0    0    0    0    0    0    0    0
                         0    0    0    0    0    0    0    0    0    0
                       outvar_i_n : Printing only first  50 k-points.
              ixc          11
              kpt      0.00000000E+00  0.00000000E+00  0.00000000E+00
                       2.22222222E-02  0.00000000E+00  0.00000000E+00
                       4.44444444E-02  0.00000000E+00  0.00000000E+00
                       6.66666667E-02  0.00000000E+00  0.00000000E+00
                       8.88888889E-02  0.00000000E+00  0.00000000E+00
                       1.11111111E-01  0.00000000E+00  0.00000000E+00
                       1.33333333E-01  0.00000000E+00  0.00000000E+00
                       1.55555556E-01  0.00000000E+00  0.00000000E+00
                       1.77777778E-01  0.00000000E+00  0.00000000E+00
                       2.00000000E-01  0.00000000E+00  0.00000000E+00
                       2.22222222E-01  0.00000000E+00  0.00000000E+00
                       2.44444444E-01  0.00000000E+00  0.00000000E+00
                       2.66666667E-01  0.00000000E+00  0.00000000E+00
                       2.88888889E-01  0.00000000E+00  0.00000000E+00
                       3.11111111E-01  0.00000000E+00  0.00000000E+00
                       3.33333333E-01  0.00000000E+00  0.00000000E+00
                       3.55555556E-01  0.00000000E+00  0.00000000E+00
                       3.77777778E-01  0.00000000E+00  0.00000000E+00
                       4.00000000E-01  0.00000000E+00  0.00000000E+00
                       4.22222222E-01  0.00000000E+00  0.00000000E+00
                       4.44444444E-01  0.00000000E+00  0.00000000E+00
                       4.66666667E-01  0.00000000E+00  0.00000000E+00
                       4.88888889E-01  0.00000000E+00  0.00000000E+00
                       4.44444444E-02  2.22222222E-02  0.00000000E+00
                       6.66666667E-02  2.22222222E-02  0.00000000E+00
                       8.88888889E-02  2.22222222E-02  0.00000000E+00
                       1.11111111E-01  2.22222222E-02  0.00000000E+00
                       1.33333333E-01  2.22222222E-02  0.00000000E+00
                       1.55555556E-01  2.22222222E-02  0.00000000E+00
                       1.77777778E-01  2.22222222E-02  0.00000000E+00
                       2.00000000E-01  2.22222222E-02  0.00000000E+00
                       2.22222222E-01  2.22222222E-02  0.00000000E+00
                       2.44444444E-01  2.22222222E-02  0.00000000E+00
                       2.66666667E-01  2.22222222E-02  0.00000000E+00
                       2.88888889E-01  2.22222222E-02  0.00000000E+00
                       3.11111111E-01  2.22222222E-02  0.00000000E+00
                       3.33333333E-01  2.22222222E-02  0.00000000E+00
                       3.55555556E-01  2.22222222E-02  0.00000000E+00
                       3.77777778E-01  2.22222222E-02  0.00000000E+00
                       4.00000000E-01  2.22222222E-02  0.00000000E+00
                       4.22222222E-01  2.22222222E-02  0.00000000E+00
                       4.44444444E-01  2.22222222E-02  0.00000000E+00
                       4.66666667E-01  2.22222222E-02  0.00000000E+00
                       4.88888889E-01  2.22222222E-02  0.00000000E+00
                      -4.88888889E-01  2.22222222E-02  0.00000000E+00
                       8.88888889E-02  4.44444444E-02  0.00000000E+00
                       1.11111111E-01  4.44444444E-02  0.00000000E+00
                       1.33333333E-01  4.44444444E-02  0.00000000E+00
                       1.55555556E-01  4.44444444E-02  0.00000000E+00
                       1.77777778E-01  4.44444444E-02  0.00000000E+00
                       outvar_i_n : Printing only first  50 k-points.
         kptrlatt       45    0    0      0   45    0      0    0    1
          kptrlen      2.09016429E+02
P           mkmem         192
            natom           2
            nband          10
            ngfft          24      24      96
             nkpt         192
            nstep          25
             nsym          24
           ntypat           1
              occ      2.000000  2.000000  2.000000  2.000000  0.000000  0.000000
                       0.000000  0.000000  0.000000  0.000000
           prtdos           2
            rprim      8.6602540378E-01 -5.0000000000E-01  0.0000000000E+00
                       8.6602540378E-01  5.0000000000E-01  0.0000000000E+00
                       0.0000000000E+00  0.0000000000E+00  1.0000000000E+00
          spgroup         191
           symrel      1  0  0   0  1  0   0  0  1      -1  0  0   0 -1  0   0  0 -1
                      -1  1  0   0  1  0   0  0  1       1 -1  0   0 -1  0   0  0 -1
                       0  1  0  -1  1  0   0  0  1       0 -1  0   1 -1  0   0  0 -1
                      -1  0  0  -1  1  0   0  0  1       1  0  0   1 -1  0   0  0 -1
                      -1  1  0  -1  0  0   0  0  1       1 -1  0   1  0  0   0  0 -1
                       0 -1  0  -1  0  0   0  0  1       0  1  0   1  0  0   0  0 -1
                      -1  0  0   0 -1  0   0  0  1       1  0  0   0  1  0   0  0 -1
                       1 -1  0   0 -1  0   0  0  1      -1  1  0   0  1  0   0  0 -1
                       0 -1  0   1 -1  0   0  0  1       0  1  0  -1  1  0   0  0 -1
                       1  0  0   1 -1  0   0  0  1      -1  0  0  -1  1  0   0  0 -1
                       1 -1  0   1  0  0   0  0  1      -1  1  0  -1  0  0   0  0 -1
                       0  1  0   1  0  0   0  0  1       0 -1  0  -1  0  0   0  0 -1
            tnons      0.0000000  0.0000000  0.0000000    -0.0000000 -0.0000000  0.0000000
                      -0.0000000  0.0000000  0.0000000     0.0000000 -0.0000000  0.0000000
                      -0.0000000  0.0000000  0.0000000     0.0000000 -0.0000000  0.0000000
                      -0.0000000  0.0000000  0.0000000     0.0000000 -0.0000000  0.0000000
                      -0.0000000  0.0000000  0.0000000     0.0000000 -0.0000000  0.0000000
                      -0.0000000 -0.0000000  0.0000000     0.0000000  0.0000000  0.0000000
                      -0.0000000 -0.0000000  0.0000000     0.0000000  0.0000000  0.0000000
                       0.0000000 -0.0000000  0.0000000    -0.0000000  0.0000000  0.0000000
                       0.0000000 -0.0000000  0.0000000    -0.0000000  0.0000000  0.0000000
                       0.0000000 -0.0000000  0.0000000    -0.0000000  0.0000000  0.0000000
                       0.0000000 -0.0000000  0.0000000    -0.0000000  0.0000000  0.0000000
                       0.0000000  0.0000000  0.0000000    -0.0000000 -0.0000000  0.0000000
           toldfe      1.00000000E-06 Hartree
            typat      1  1
              wtk        0.00049    0.00296    0.00296    0.00296    0.00296    0.00296
                         0.00296    0.00296    0.00296    0.00296    0.00296    0.00296
                         0.00296    0.00296    0.00296    0.00296    0.00296    0.00296
                         0.00296    0.00296    0.00296    0.00296    0.00296    0.00296
                         0.00593    0.00593    0.00593    0.00593    0.00593    0.00593
                         0.00593    0.00593    0.00593    0.00593    0.00593    0.00593
                         0.00593    0.00593    0.00593    0.00593    0.00593    0.00593
                         0.00593    0.00593    0.00296    0.00296    0.00593    0.00593
                         0.00593    0.00593
                       outvars : Printing only first  50 k-points.
           xangst      1.4190850134E+00  2.5203350282E-17  0.0000000000E+00
                       2.8381700268E+00 -4.6070957865E-17  0.0000000000E+00
            xcart      2.6816820346E+00  4.7627429663E-17  0.0000000000E+00
                       5.3633640692E+00 -8.7061493045E-17  0.0000000000E+00
             xred      3.3333333333E-01  3.3333333333E-01  0.0000000000E+00
                       6.6666666667E-01  6.6666666667E-01  0.0000000000E+00
            znucl        6.00000

 chkinp: Checking input parameters for consistency.

== DATASET  1 ==================================================================
-   nproc =    1

 Real(R)+Recip(G) space primitive vectors, cartesian coordinates (Bohr,Bohr^-1):
 R(1)=  4.0225231 -2.3224048  0.0000000  G(1)=  0.1243001 -0.2152941  0.0000000
 R(2)=  4.0225231  2.3224048  0.0000000  G(2)=  0.1243001  0.2152941  0.0000000
 R(3)=  0.0000000  0.0000000 18.8971600  G(3)=  0.0000000  0.0000000  0.0529180
 Unit cell volume ucvol=  3.5307177E+02 bohr^3
 Angles (23,13,12)=  9.00000000E+01  9.00000000E+01  6.00000000E+01 degrees

 getcut: wavevector=  0.0000  0.0000  0.0000  ngfft=  24  24  96
         ecut(hartree)=     30.000   => boxcut(ratio)=   2.06039

--- Pseudopotential description ------------------------------------------------
- pspini: atom type   1  psp file is 06-C.GGA.fhi
- pspatm: opening atomic psp file    06-C.GGA.fhi
- carbon, fhi98PP : Trouiller-Martins-type, GGA Perdew/Burke/Ernzerhof (1996), l= 2 local
-  6.00000   4.00000     21003                znucl, zion, pspdat
    6   11    3    2       461   0.00000      pspcod,pspxc,lmax,lloc,mmax,r2well
    0.00000000000000    0.00000000000000    0.00000000000000   rchrg,fchrg,qchrg
  1.024700          amesh (Hamman grid)
[...]
  -0.72840  -0.28666  -0.23166  -0.19074   0.11575   0.17338   0.22003   0.27580
   0.31058   0.36502
 kpt#  31, nband= 10, wtk=  0.00593, kpt=  0.2000  0.0222  0.0000 (reduced coord)
  -0.72154  -0.27859  -0.25100  -0.19958   0.12513   0.18258   0.22919   0.27416
   0.29159   0.38768
 kpt#  32, nband= 10, wtk=  0.00593, kpt=  0.2222  0.0222  0.0000 (reduced coord)
  -0.71384  -0.27123  -0.26957  -0.20841   0.13569   0.19283   0.23936   0.27144
   0.27212   0.40823
 kpt#  33, nband= 10, wtk=  0.00593, kpt=  0.2444  0.0222  0.0000 (reduced coord)
  -0.70531  -0.29209  -0.25962  -0.21705   0.14740   0.20390   0.25016   0.25060
   0.27020   0.41867
 kpt#  34, nband= 10, wtk=  0.00593, kpt=  0.2667  0.0222  0.0000 (reduced coord)
  -0.69596  -0.31336  -0.24880  -0.22536   0.16027   0.21361   0.23151   0.25914
   0.27103   0.43009
 kpt#  35, nband= 10, wtk=  0.00593, kpt=  0.2889  0.0222  0.0000 (reduced coord)
  -0.68581  -0.33486  -0.23714  -0.23323   0.17429   0.20254   0.23381   0.26024
   0.28078   0.44234
 kpt#  36, nband= 10, wtk=  0.00593, kpt=  0.3111  0.0222  0.0000 (reduced coord)
  -0.67486  -0.35642  -0.24056  -0.22470   0.18076   0.18944   0.24768   0.25809
   0.29497   0.45530
 kpt#  37, nband= 10, wtk=  0.00593, kpt=  0.3333  0.0222  0.0000 (reduced coord)
  -0.66313  -0.37791  -0.24729  -0.21158   0.15817   0.20569   0.25552   0.26344
   0.31088   0.46877
 kpt#  38, nband= 10, wtk=  0.00593, kpt=  0.3556  0.0222  0.0000 (reduced coord)
  -0.65064  -0.39922  -0.25335  -0.19789   0.13566   0.22294   0.25312   0.28046
   0.32809   0.48243
 kpt#  39, nband= 10, wtk=  0.00593, kpt=  0.3778  0.0222  0.0000 (reduced coord)
  -0.63743  -0.42021  -0.25868  -0.18381   0.11363   0.24026   0.25197   0.29859
   0.34649   0.49561
 kpt#  40, nband= 10, wtk=  0.00593, kpt=  0.4000  0.0222  0.0000 (reduced coord)
  -0.62353  -0.44079  -0.26325  -0.16960   0.09250   0.24658   0.26321   0.31778
   0.36603   0.50672
 kpt#  41, nband= 10, wtk=  0.00593, kpt=  0.4222  0.0222  0.0000 (reduced coord)
  -0.60904  -0.46083  -0.26704  -0.15567   0.07278   0.24546   0.28334   0.33796
   0.38667   0.48210
 kpt#  42, nband= 10, wtk=  0.00593, kpt=  0.4444  0.0222  0.0000 (reduced coord)
  -0.59409  -0.48012  -0.27000  -0.14267   0.05520   0.24417   0.30507   0.35904
   0.40835   0.45575
 kpt#  43, nband= 10, wtk=  0.00593, kpt=  0.4667  0.0222  0.0000 (reduced coord)
  -0.57907  -0.49827  -0.27213  -0.13161   0.04082   0.24318   0.32794   0.38089
   0.42791   0.43228
 kpt#  44, nband= 10, wtk=  0.00593, kpt=  0.4889  0.0222  0.0000 (reduced coord)
  -0.56528  -0.51395  -0.27341  -0.12392   0.03112   0.24257   0.35181   0.40265
   0.40308   0.45477
 kpt#  45, nband= 10, wtk=  0.00296, kpt= -0.4889  0.0222  0.0000 (reduced coord)
  -0.55819  -0.52168  -0.27384  -0.12112   0.02765   0.24236   0.37419   0.37946
   0.41985   0.43568
 kpt#  46, nband= 10, wtk=  0.00296, kpt=  0.0889  0.0444  0.0000 (reduced coord)
  -0.74778  -0.30961  -0.16786  -0.15912   0.08934   0.14729   0.19406   0.27619
   0.29326   0.36547
 kpt#  47, nband= 10, wtk=  0.00593, kpt=  0.1111  0.0444  0.0000 (reduced coord)
  -0.74475  -0.30602  -0.17853  -0.16531   0.09345   0.15136   0.19811   0.27811
   0.30408   0.36038
 kpt#  48, nband= 10, wtk=  0.00593, kpt=  0.1333  0.0444  0.0000 (reduced coord)
  -0.74088  -0.30141  -0.19164  -0.17267   0.09873   0.15659   0.20332   0.27969
   0.31758   0.34794
 kpt#  49, nband= 10, wtk=  0.00593, kpt=  0.1556  0.0444  0.0000 (reduced coord)
  -0.73614  -0.29580  -0.20686  -0.18087   0.10519   0.16297   0.20968   0.28054
   0.33339   0.33360
 kpt#  50, nband= 10, wtk=  0.00593, kpt=  0.1778  0.0444  0.0000 (reduced coord)
  -0.73055  -0.28919  -0.22383  -0.18959   0.11282   0.17050   0.21718   0.28052
   0.31693   0.35189
 prteigrs : prtvol=0 or 1, do not print more k-points.

 Total charge density [el/Bohr^3]
,     Maximum=    3.3146E-01  at reduced coord.    0.5417    0.8750    0.0000
,Next maximum=    3.3146E-01  at reduced coord.    0.5833    0.5417    0.0000
,     Minimum=    3.5485E-09  at reduced coord.    0.4583    0.0417    0.4896
,Next minimum=    3.5486E-09  at reduced coord.    0.5000    0.0417    0.4896
,  Integrated=    8.0000E+00

 Components of total free energy (in Hartree) :

    Kinetic energy  =  8.21872293805377E+00
    Hartree energy  =  2.37109655486101E+01
    XC energy       = -3.51207894325900E+00
    Ewald energy    =  1.40664047571042E+01
    PspCore energy  =  1.28415580081541E-01
    Loc. psp. energy= -5.42644703145829E+01
    NL   psp  energy=  2.42132490664177E-01
    >>>>>>>>> Etotal= -1.14099079433282E+01

 Other information on the energy :
    Total energy(eV)= -3.10479384853166E+02 ; Band energy (Ha)=  -2.9700973611E+00

 Cartesian components of stress tensor (hartree/bohr^3)
  sigma(1 1)=  6.01194360E-06  sigma(3 2)=  0.00000000E+00
  sigma(2 2)=  6.01194360E-06  sigma(3 1)=  0.00000000E+00
  sigma(3 3)=  1.09795963E-06  sigma(2 1)=  0.00000000E+00

-Cartesian components of stress tensor (GPa)         [Pressure= -1.2869E-01 GPa]
- sigma(1 1)=  1.76877458E-01  sigma(3 2)=  0.00000000E+00
- sigma(2 2)=  1.76877458E-01  sigma(3 1)=  0.00000000E+00
- sigma(3 3)=  3.23030820E-02  sigma(2 1)=  0.00000000E+00

== END DATASET(S) ==============================================================

 -outvars: echo values of variables after computation  --------
            acell      4.6448095337E+00  4.6448095337E+00  1.8897160000E+01 Bohr
              amu      1.20110000E+01
             ecut      3.00000000E+01 Hartree
           etotal     -1.1409907943E+01
            fcart     -0.0000000000E+00 -0.0000000000E+00 -0.0000000000E+00
                      -0.0000000000E+00 -0.0000000000E+00 -0.0000000000E+00
-          fftalg         312
           istwfk        2    0    0    0    0    0    0    0    0    0
                         0    0    0    0    0    0    0    0    0    0
                         0    0    0    0    0    0    0    0    0    0
                         0    0    0    0    0    0    0    0    0    0
                         0    0    0    0    0    0    0    0    0    0
                       outvar_i_n : Printing only first  50 k-points.
              ixc          11
              kpt      0.00000000E+00  0.00000000E+00  0.00000000E+00
                       2.22222222E-02  0.00000000E+00  0.00000000E+00
                       4.44444444E-02  0.00000000E+00  0.00000000E+00
                       6.66666667E-02  0.00000000E+00  0.00000000E+00
                       8.88888889E-02  0.00000000E+00  0.00000000E+00
                       1.11111111E-01  0.00000000E+00  0.00000000E+00
                       1.33333333E-01  0.00000000E+00  0.00000000E+00
                       1.55555556E-01  0.00000000E+00  0.00000000E+00
                       1.77777778E-01  0.00000000E+00  0.00000000E+00
                       2.00000000E-01  0.00000000E+00  0.00000000E+00
                       2.22222222E-01  0.00000000E+00  0.00000000E+00
                       2.44444444E-01  0.00000000E+00  0.00000000E+00
                       2.66666667E-01  0.00000000E+00  0.00000000E+00
                       2.88888889E-01  0.00000000E+00  0.00000000E+00
                       3.11111111E-01  0.00000000E+00  0.00000000E+00
                       3.33333333E-01  0.00000000E+00  0.00000000E+00
                       3.55555556E-01  0.00000000E+00  0.00000000E+00
                       3.77777778E-01  0.00000000E+00  0.00000000E+00
                       4.00000000E-01  0.00000000E+00  0.00000000E+00
                       4.22222222E-01  0.00000000E+00  0.00000000E+00
                       4.44444444E-01  0.00000000E+00  0.00000000E+00
                       4.66666667E-01  0.00000000E+00  0.00000000E+00
                       4.88888889E-01  0.00000000E+00  0.00000000E+00
                       4.44444444E-02  2.22222222E-02  0.00000000E+00
                       6.66666667E-02  2.22222222E-02  0.00000000E+00
                       8.88888889E-02  2.22222222E-02  0.00000000E+00
                       1.11111111E-01  2.22222222E-02  0.00000000E+00
                       1.33333333E-01  2.22222222E-02  0.00000000E+00
                       1.55555556E-01  2.22222222E-02  0.00000000E+00
                       1.77777778E-01  2.22222222E-02  0.00000000E+00
                       2.00000000E-01  2.22222222E-02  0.00000000E+00
                       2.22222222E-01  2.22222222E-02  0.00000000E+00
                       2.44444444E-01  2.22222222E-02  0.00000000E+00
                       2.66666667E-01  2.22222222E-02  0.00000000E+00
                       2.88888889E-01  2.22222222E-02  0.00000000E+00
                       3.11111111E-01  2.22222222E-02  0.00000000E+00
                       3.33333333E-01  2.22222222E-02  0.00000000E+00
                       3.55555556E-01  2.22222222E-02  0.00000000E+00
                       3.77777778E-01  2.22222222E-02  0.00000000E+00
                       4.00000000E-01  2.22222222E-02  0.00000000E+00
                       4.22222222E-01  2.22222222E-02  0.00000000E+00
                       4.44444444E-01  2.22222222E-02  0.00000000E+00
                       4.66666667E-01  2.22222222E-02  0.00000000E+00
                       4.88888889E-01  2.22222222E-02  0.00000000E+00
                      -4.88888889E-01  2.22222222E-02  0.00000000E+00
                       8.88888889E-02  4.44444444E-02  0.00000000E+00
                       1.11111111E-01  4.44444444E-02  0.00000000E+00
                       1.33333333E-01  4.44444444E-02  0.00000000E+00
                       1.55555556E-01  4.44444444E-02  0.00000000E+00
                       1.77777778E-01  4.44444444E-02  0.00000000E+00
                       outvar_i_n : Printing only first  50 k-points.
         kptrlatt       45    0    0      0   45    0      0    0    1
          kptrlen      2.09016429E+02
P           mkmem         192
            natom           2
            nband          10
            ngfft          24      24      96
             nkpt         192
            nstep          25
             nsym          24
           ntypat           1
              occ      2.000000  2.000000  2.000000  2.000000  0.000000  0.000000
                       0.000000  0.000000  0.000000  0.000000
           prtdos           2
            rprim      8.6602540378E-01 -5.0000000000E-01  0.0000000000E+00
                       8.6602540378E-01  5.0000000000E-01  0.0000000000E+00
                       0.0000000000E+00  0.0000000000E+00  1.0000000000E+00
          spgroup         191
           strten      6.0119436028E-06  6.0119435991E-06  1.0979596268E-06
                       0.0000000000E+00  0.0000000000E+00  0.0000000000E+00
           symrel      1  0  0   0  1  0   0  0  1      -1  0  0   0 -1  0   0  0 -1
                      -1  1  0   0  1  0   0  0  1       1 -1  0   0 -1  0   0  0 -1
                       0  1  0  -1  1  0   0  0  1       0 -1  0   1 -1  0   0  0 -1
                      -1  0  0  -1  1  0   0  0  1       1  0  0   1 -1  0   0  0 -1
                      -1  1  0  -1  0  0   0  0  1       1 -1  0   1  0  0   0  0 -1
                       0 -1  0  -1  0  0   0  0  1       0  1  0   1  0  0   0  0 -1
                      -1  0  0   0 -1  0   0  0  1       1  0  0   0  1  0   0  0 -1
                       1 -1  0   0 -1  0   0  0  1      -1  1  0   0  1  0   0  0 -1
                       0 -1  0   1 -1  0   0  0  1       0  1  0  -1  1  0   0  0 -1
                       1  0  0   1 -1  0   0  0  1      -1  0  0  -1  1  0   0  0 -1
                       1 -1  0   1  0  0   0  0  1      -1  1  0  -1  0  0   0  0 -1
                       0  1  0   1  0  0   0  0  1       0 -1  0  -1  0  0   0  0 -1
            tnons      0.0000000  0.0000000  0.0000000    -0.0000000 -0.0000000  0.0000000
                      -0.0000000  0.0000000  0.0000000     0.0000000 -0.0000000  0.0000000
                      -0.0000000  0.0000000  0.0000000     0.0000000 -0.0000000  0.0000000
                      -0.0000000  0.0000000  0.0000000     0.0000000 -0.0000000  0.0000000
                      -0.0000000  0.0000000  0.0000000     0.0000000 -0.0000000  0.0000000
                      -0.0000000 -0.0000000  0.0000000     0.0000000  0.0000000  0.0000000
                      -0.0000000 -0.0000000  0.0000000     0.0000000  0.0000000  0.0000000
                       0.0000000 -0.0000000  0.0000000    -0.0000000  0.0000000  0.0000000
                       0.0000000 -0.0000000  0.0000000    -0.0000000  0.0000000  0.0000000
                       0.0000000 -0.0000000  0.0000000    -0.0000000  0.0000000  0.0000000
                       0.0000000 -0.0000000  0.0000000    -0.0000000  0.0000000  0.0000000
                       0.0000000  0.0000000  0.0000000    -0.0000000 -0.0000000  0.0000000
           toldfe      1.00000000E-06 Hartree
            typat      1  1
              wtk        0.00049    0.00296    0.00296    0.00296    0.00296    0.00296
                         0.00296    0.00296    0.00296    0.00296    0.00296    0.00296
                         0.00296    0.00296    0.00296    0.00296    0.00296    0.00296
                         0.00296    0.00296    0.00296    0.00296    0.00296    0.00296
                         0.00593    0.00593    0.00593    0.00593    0.00593    0.00593
                         0.00593    0.00593    0.00593    0.00593    0.00593    0.00593
                         0.00593    0.00593    0.00593    0.00593    0.00593    0.00593
                         0.00593    0.00593    0.00296    0.00296    0.00593    0.00593
                         0.00593    0.00593
                       outvars : Printing only first  50 k-points.
           xangst      1.4190850134E+00  1.8727884963E-18  0.0000000000E+00
                       2.8381700268E+00  7.5979276349E-18  0.0000000000E+00
            xcart      2.6816820346E+00  3.5390573629E-18  0.0000000000E+00
                       5.3633640692E+00  1.4358002407E-17  0.0000000000E+00
             xred      3.3333333333E-01  3.3333333333E-01  0.0000000000E+00
                       6.6666666667E-01  6.6666666667E-01  0.0000000000E+00
            znucl        6.00000

- Timing analysis has been suppressed with timopt=0

 Suggested references for the acknowledgment of ABINIT usage.

 [1] Ab initio pseudopotentials for electronic structure calculations of poly-atomic systems,
 using density-functional theory.
 M. Fuchs, M. Scheffler, Comput. Phys. Commun. 119, 67 (1999).
 Comment : Some pseudopotential generated using the FHI code were used.

 [2] ABINIT : First-principles approach of materials and nanosystem properties.
 X. Gonze, B. Amadon, P.-M. Anglade, J.-M. Beuken, F. Bottin, P. Boulanger, F. Bruneval,
 D. Caliste, R. Caracas, M. Cote, T. Deutsch, L. Genovese, Ph. Ghosez, M. Giantomassi
 S. Goedecker, D.R. Hamann, P. Hermet, F. Jollet, G. Jomard, S. Leroux, M. Mancini, S. Mazevet,
 M.J.T. Oliveira, G. Onida, Y. Pouillon, T. Rangel, G.-M. Rignanese, D. Sangalli, R. Shaltaf,
 M. Torrent, M.J. Verstraete, G. Zerah, J.W. Zwanziger
 Computer Phys. Comm. 180, 2582-2615 (2009).
 Comment : the third generic paper describing the ABINIT project.
 Note that a version of this paper, that is not formatted for Computer Phys. Comm.
 The licence allows the authors to put it on the Web.

 [3] A brief introduction to the ABINIT software package.
 X. Gonze, G.-M. Rignanese, M. Verstraete, J.-M. Beuken, Y. Pouillon, R. Caracas, F. Jollet,
 M. Torrent, G. Zerah, M. Mikami, Ph. Ghosez, M. Veithen, J.-Y. Raty, V. Olevano, F. Bruneval,
 L. Reining, R. Godby, G. Onida, D.R. Hamann, and D.C. Allan.
 Z. Kristallogr. 220, 558-562 (2005).
 Comment : the second generic paper describing the ABINIT project. Note that this paper
 should be cited especially if you are using the GW part of ABINIT, as several authors
 of this part are not in the list of authors of the first or third paper.
 Note that it should not redistributed (Copyright by Oldenburg Wissenshaftverlag,
 the licence allows the authors to put it on the Web).

 And optionally :

 [4] First-principles computation of material properties : the ABINIT software project.
 X. Gonze, J.-M. Beuken, R. Caracas, F. Detraux, M. Fuchs, G.-M. Rignanese, L. Sindic,
 M. Verstraete, G. Zerah, F. Jollet, M. Torrent, A. Roy, M. Mikami, Ph. Ghosez, J.-Y. Raty, D.C. Allan.
 Comment : the original paper describing the ABINIT project.

 [5] Fast radix 2, 3, 4 and 5 kernels for Fast Fourier Transformations
 on computers with overlapping multiply-add instructions.
 S. Goedecker, SIAM J. on Scientific Computing 18, 1605 (1997).
-

 Calculation completed.
.Delivered    0 WARNINGs and   0 COMMENTs to log file.