.Version 8.8.4 of ABINIT

 ABINIT is a project of the Universite Catholique de Louvain,
 Corning Inc. and other collaborators, see ~abinit/doc/developers/contributors.txt .
 Please read ~abinit/doc/users/acknowledgments.html for suggested
 acknowledgments of the ABINIT effort.

.Starting date : Tue 25 Sep 2018.
- ( at 11h39 )

- input  file    -> pd.in
- output file    -> pd.txt
- root for input  files -> pdi
- root for output files -> pdo

- inpspheads : Reading pseudopotential header in XML form from ./Pd.GGA_PBE-JTH.xml

 Symmetries : space group P-1 (#  2); Bravais aP (primitive triclinic)
     intxc =       0    ionmov =       0      iscf =      17    lmnmax =      18
     lnmax =       6     mgfft =     180  mpssoang =       3    mqgrid =    9802
     natom =       5  nloc_mem =       2    nspden =       1   nspinor =       1
    nsppol =       1      nsym =       2    n1xccc =       1    ntypat =       1
    occopt =       3   xclevel =       2
-    mband =          48        mffmem =           1         mkmem =          25
       mpw =        6541          nfft =      131220          nkpt =          25
 PAW method is used; the additional fine FFT grid is defined by:
   mgfftf=       200    nfftf =    180000
  Rough estimation (10% accuracy) of disk space for files :

------------- Echo of variables that govern the present computation ------------
-
- outvars: echo of selected default values
-   iomode0 =  0 , fftalg0 =112 , wfoptalg0 = 10
-
- outvars: echo of global parameters not present in the input file
-  max_nthreads =    1
-
 -outvars: echo values of preprocessed input variables --------
            acell      1.8897261329E+00  1.8897261329E+00  1.8897261329E+00 Bohr
              amu      1.06420000E+02
          chkexit           1
             ecut      3.00000031E+01 Hartree
-          fftalg         112
           getwfk          -1
           istwfk        2    0    0    0    0    0    0    0    0    0
                         0    0    0    0    0    0    0    0    0    0
                         0    0    0    0    0
              ixc          11
              kpt      0.00000000E+00  0.00000000E+00  0.00000000E+00
                       1.42857143E-01  0.00000000E+00  0.00000000E+00
                       2.85714286E-01  0.00000000E+00  0.00000000E+00
                       4.28571429E-01  0.00000000E+00  0.00000000E+00
                       0.00000000E+00  1.42857143E-01  0.00000000E+00
                       1.42857143E-01  1.42857143E-01  0.00000000E+00
                       2.85714286E-01  1.42857143E-01  0.00000000E+00
                       4.28571429E-01  1.42857143E-01  0.00000000E+00
                      -4.28571429E-01  1.42857143E-01  0.00000000E+00
                      -2.85714286E-01  1.42857143E-01  0.00000000E+00
                      -1.42857143E-01  1.42857143E-01  0.00000000E+00
                       0.00000000E+00  2.85714286E-01  0.00000000E+00
                       1.42857143E-01  2.85714286E-01  0.00000000E+00
                       2.85714286E-01  2.85714286E-01  0.00000000E+00
                       4.28571429E-01  2.85714286E-01  0.00000000E+00
                      -4.28571429E-01  2.85714286E-01  0.00000000E+00
                      -2.85714286E-01  2.85714286E-01  0.00000000E+00
                      -1.42857143E-01  2.85714286E-01  0.00000000E+00
                       0.00000000E+00  4.28571429E-01  0.00000000E+00
                       1.42857143E-01  4.28571429E-01  0.00000000E+00
                       2.85714286E-01  4.28571429E-01  0.00000000E+00
                       4.28571429E-01  4.28571429E-01  0.00000000E+00
                      -4.28571429E-01  4.28571429E-01  0.00000000E+00
                      -2.85714286E-01  4.28571429E-01  0.00000000E+00
                      -1.42857143E-01  4.28571429E-01  0.00000000E+00
         kptrlatt        7    0    0      0    7    0      0    0    1
          kptrlen      3.68931233E+01
P           mkmem          25
            natom           5
            nband          48
            ngfft          27      27     180
          ngfftdg          30      30     200
             nkpt          25
            nstep         200
             nsym           2
           ntypat           1
              occ      2.000000  2.000000  2.000000  2.000000  2.000000  2.000000
                       2.000000  2.000000  2.000000  2.000000  2.000000  2.000000
                       2.000000  2.000000  2.000000  2.000000  2.000000  2.000000
                       2.000000  2.000000  2.000000  2.000000  2.000000  2.000000
                       2.000000  2.000000  2.000000  2.000000  2.000000  2.000000
                       2.000000  2.000000  2.000000  2.000000  2.000000  2.000000
                       2.000000  2.000000  2.000000  2.000000  2.000000  2.000000
                       2.000000  2.000000  2.000000  0.000000  0.000000  0.000000
                       2.000000  2.000000  2.000000  2.000000  2.000000  2.000000
                       2.000000  2.000000  2.000000  2.000000  2.000000  2.000000
                       2.000000  2.000000  2.000000  2.000000  2.000000  2.000000
                       2.000000  2.000000  2.000000  2.000000  2.000000  2.000000
                       2.000000  2.000000  2.000000  2.000000  2.000000  2.000000
                       2.000000  2.000000  2.000000  2.000000  2.000000  2.000000
                       2.000000  2.000000  2.000000  2.000000  2.000000  2.000000
                       2.000000  2.000000  2.000000  0.000000  0.000000  0.000000
                       2.000000  2.000000  2.000000  2.000000  2.000000  2.000000
                       2.000000  2.000000  2.000000  2.000000  2.000000  2.000000
                       2.000000  2.000000  2.000000  2.000000  2.000000  2.000000
                       2.000000  2.000000  2.000000  2.000000  2.000000  2.000000
                       2.000000  2.000000  2.000000  2.000000  2.000000  2.000000
                       2.000000  2.000000  2.000000  2.000000  2.000000  2.000000
                       2.000000  2.000000  2.000000  2.000000  2.000000  2.000000
                       2.000000  2.000000  2.000000  0.000000  0.000000  0.000000
                       2.000000  2.000000  2.000000  2.000000  2.000000  2.000000
                       2.000000  2.000000  2.000000  2.000000  2.000000  2.000000
                       2.000000  2.000000  2.000000  2.000000  2.000000  2.000000
                       2.000000  2.000000  2.000000  2.000000  2.000000  2.000000
                       2.000000  2.000000  2.000000  2.000000  2.000000  2.000000
                       2.000000  2.000000  2.000000  2.000000  2.000000  2.000000
                       2.000000  2.000000  2.000000  2.000000  2.000000  2.000000
                       2.000000  2.000000  2.000000  0.000000  0.000000  0.000000
                       2.000000  2.000000  2.000000  2.000000  2.000000  2.000000
                       2.000000  2.000000  2.000000  2.000000  2.000000  2.000000
                       2.000000  2.000000  2.000000  2.000000  2.000000  2.000000
                       2.000000  2.000000  2.000000  2.000000  2.000000  2.000000
                       2.000000  2.000000  2.000000  2.000000  2.000000  2.000000
                       2.000000  2.000000  2.000000  2.000000  2.000000  2.000000
                       2.000000  2.000000  2.000000  2.000000  2.000000  2.000000
                       2.000000  2.000000  2.000000  0.000000  0.000000  0.000000
                       2.000000  2.000000  2.000000  2.000000  2.000000  2.000000
                       2.000000  2.000000  2.000000  2.000000  2.000000  2.000000
                       2.000000  2.000000  2.000000  2.000000  2.000000  2.000000
                       2.000000  2.000000  2.000000  2.000000  2.000000  2.000000
                       2.000000  2.000000  2.000000  2.000000  2.000000  2.000000
                       2.000000  2.000000  2.000000  2.000000  2.000000  2.000000
                       2.000000  2.000000  2.000000  2.000000  2.000000  2.000000
                       2.000000  2.000000  2.000000  0.000000  0.000000  0.000000
                       2.000000  2.000000  2.000000  2.000000  2.000000  2.000000
                       2.000000  2.000000  2.000000  2.000000  2.000000  2.000000
                       2.000000  2.000000  2.000000  2.000000  2.000000  2.000000
                       2.000000  2.000000  2.000000  2.000000  2.000000  2.000000
                       2.000000  2.000000  2.000000  2.000000  2.000000  2.000000
                       2.000000  2.000000  2.000000  2.000000  2.000000  2.000000
                       2.000000  2.000000  2.000000  2.000000  2.000000  2.000000
                       2.000000  2.000000  2.000000  0.000000  0.000000  0.000000
                       2.000000  2.000000  2.000000  2.000000  2.000000  2.000000
                       2.000000  2.000000  2.000000  2.000000  2.000000  2.000000
                       2.000000  2.000000  2.000000  2.000000  2.000000  2.000000
                       2.000000  2.000000  2.000000  2.000000  2.000000  2.000000
                       2.000000  2.000000  2.000000  2.000000  2.000000  2.000000
[...]
                       2.000000  2.000000  2.000000  2.000000  2.000000  2.000000
                       2.000000  2.000000  2.000000  2.000000  2.000000  2.000000
                       2.000000  2.000000  2.000000  2.000000  2.000000  2.000000
                       2.000000  2.000000  2.000000  2.000000  2.000000  2.000000
                       2.000000  2.000000  2.000000  2.000000  2.000000  2.000000
                       2.000000  2.000000  2.000000  2.000000  2.000000  2.000000
                       2.000000  2.000000  2.000000  0.000000  0.000000  0.000000
                       2.000000  2.000000  2.000000  2.000000  2.000000  2.000000
                       2.000000  2.000000  2.000000  2.000000  2.000000  2.000000
                       2.000000  2.000000  2.000000  2.000000  2.000000  2.000000
                       2.000000  2.000000  2.000000  2.000000  2.000000  2.000000
                       2.000000  2.000000  2.000000  2.000000  2.000000  2.000000
                       2.000000  2.000000  2.000000  2.000000  2.000000  2.000000
                       2.000000  2.000000  2.000000  2.000000  2.000000  2.000000
                       2.000000  2.000000  2.000000  0.000000  0.000000  0.000000
           occopt           3
        pawecutdg      3.99999870E+01 Hartree
            rprim      2.7890000000E+00  0.0000000000E+00  0.0000000000E+00
                       1.3945000000E+00  2.4153448512E+00  0.0000000000E+00
                       0.0000000000E+00  0.0000000000E+00  1.8217671714E+01
          spgroup           2
           symrel      1  0  0   0  1  0   0  0  1      -1  0  0   0 -1  0   0  0 -1
            tnons      0.0000000  0.0000000  0.0000000     0.3333333  0.3333333 -0.2500000
           toldfe      3.67493254E-08 Hartree
           tsmear      7.34986508E-04 Hartree
            typat      1  1  1  1  1
           useylm           1
[...]
    1      -0.000958954541     -0.000247332989     -0.004978254122
    2       0.000046736734      0.000026935929     -0.005746297034
    3       0.000000000000      0.000000000000      0.000000000000
    4      -0.000046736734     -0.000026935929      0.005746297034
    5       0.000958954541      0.000247332989      0.004978254122

 cartesian coordinates (angstrom) at end:
    1      0.00001394500000    -0.00002415344851     2.28676407836823
    2      1.39450000000000     0.80511495038493     4.57003462670261
    3      2.78900000000000     1.61022990076986     6.83162689262228
    4      4.18350000000000     2.41534485115480     9.09321915854196
    5      5.57798605500000     3.22048395498824    11.37648970687634

 cartesian forces (hartree/bohr) at end:
    1      0.00018194940374    -0.00005086042373     0.00014460566979
    2     -0.00000886769966    -0.00000078161618     0.00016691537051
    3      0.00000000000000     0.00000000000000     0.00000000000000
    4      0.00000886769966     0.00000078161618    -0.00016691537051
    5     -0.00018194940374     0.00005086042373    -0.00014460566979
 frms,max,avg= 1.0617166E-04 1.8194940E-04   0.000E+00  0.000E+00  0.000E+00 h/b

 cartesian forces (eV/Angstrom) at end:
    1      0.00935621373677    -0.00261534792290     0.00743592188966
    2     -0.00045599541226    -0.00004019231641     0.00858313273033
    3      0.00000000000000     0.00000000000000     0.00000000000000
    4      0.00045599541226     0.00004019231641    -0.00858313273033
    5     -0.00935621373677     0.00261534792290    -0.00743592188966
 frms,max,avg= 5.4595657E-03 9.3562137E-03   0.000E+00  0.000E+00  0.000E+00 e/A
 length scales=  1.889726132886  1.889726132886  1.889726132886 bohr
              =  1.000000000000  1.000000000000  1.000000000000 angstroms
 prteigrs : about to open file pdo_EIG
 Fermi (or HOMO) energy (hartree) =   0.18173   Average Vxc (hartree)=  -0.31482
 Eigenvalues (hartree) for nkpt=  25  k points:
 kpt#   1, nband= 48, wtk=  0.02041, kpt=  0.0000  0.0000  0.0000 (reduced coord)
  -2.90757   -2.90517   -2.90500   -2.89364   -2.89364   -1.65245   -1.64653   -1.64268
  -1.64254   -1.64231   -1.64030   -1.64008   -1.64007   -1.63985   -1.63296   -1.63296
  -1.63273   -1.63273   -1.62608   -1.62605   -0.06150   -0.03096   -0.00508    0.00417
   0.00779    0.08134    0.08344    0.08381    0.08383    0.08611    0.08620    0.09110
   0.09111    0.09779    0.09781    0.09821    0.09873    0.09874    0.13826    0.13833
   0.14211    0.14252    0.14265    0.15457    0.15476    0.17014    0.17033    0.17913
      occupation numbers for kpt#   1
   2.00000    2.00000    2.00000    2.00000    2.00000    2.00000    2.00000    2.00000
   2.00000    2.00000    2.00000    2.00000    2.00000    2.00000    2.00000    2.00000
   2.00000    2.00000    2.00000    2.00000    2.00000    2.00000    2.00000    2.00000
   2.00000    2.00000    2.00000    2.00000    2.00000    2.00000    2.00000    2.00000
   2.00000    2.00000    2.00000    2.00000    2.00000    2.00000    2.00000    2.00000
   2.00000    2.00000    2.00000    2.00000    2.00000    2.00000    2.00000    1.94352
 prteigrs : prtvol=0 or 1, do not print more k-points.

 Components of total free energy (in Hartree) :

    Kinetic energy  =  6.59692232658198E+01
    Hartree energy  =  9.60049096046327E+02
    XC energy       = -2.10294813841035E+01
    Ewald energy    =  4.20990769256001E+02
    PspCore energy  =  2.49569872558701E+01
    Loc. psp. energy= -2.04406387533931E+03
    Spherical terms = -5.09298700935999E+01
    >>>>> Internal E= -6.44057150992991E+02

    -kT*entropy     = -4.87980069939109E-04
    >>>>>>>>> Etotal= -6.44057638973061E+02

 "Double-counting" decomposition of free energy:
    Band energy     = -7.33816312627568E+01
    Ewald energy    =  4.20990769256001E+02
    PspCore energy  =  2.49569872558701E+01
    Dble-C XC-energy= -9.56748422988427E+02
    Spherical terms = -5.98748408171630E+01
    >>>>> Internal E= -6.44057138556476E+02

    -kT*entropy     = -4.87980069939109E-04
    >>>> Etotal (DC)= -6.44057626536546E+02

  >Total energy in eV           = -1.75256996420613E+04
  >Total DC energy in eV        = -1.75256993036465E+04

 Cartesian components of stress tensor (hartree/bohr^3)
  sigma(1 1)=  8.83078724E-05  sigma(3 2)= -1.03589118E-06
  sigma(2 2)=  8.91907937E-05  sigma(3 1)=  3.71119116E-06
  sigma(3 3)=  5.03599066E-06  sigma(2 1)=  1.57680026E-06

-Cartesian components of stress tensor (GPa)         [Pressure= -1.7901E+00 GPa]
- sigma(1 1)=  2.59810687E+00  sigma(3 2)= -3.04769656E-02
- sigma(2 2)=  2.62408330E+00  sigma(3 1)=  1.09186995E-01
- sigma(3 3)=  1.48163936E-01  sigma(2 1)=  4.63910575E-02

== END DATASET(S) ==============================================================

 -outvars: echo values of variables after computation  --------
            acell      1.8897261329E+00  1.8897261329E+00  1.8897261329E+00 Bohr
              amu      1.06420000E+02
          chkexit           1
             ecut      3.00000031E+01 Hartree
           etotal     -6.4405762654E+02
            fcart      1.8194940374E-04 -5.0860423728E-05  1.4460566979E-04
                      -8.8676996595E-06 -7.8161617634E-07  1.6691537051E-04
                       0.0000000000E+00  0.0000000000E+00  0.0000000000E+00
                       8.8676996595E-06  7.8161617634E-07 -1.6691537051E-04
                      -1.8194940374E-04  5.0860423728E-05 -1.4460566979E-04
-          fftalg         112
           getwfk          -1
           istwfk        2    0    0    0    0    0    0    0    0    0
                         0    0    0    0    0    0    0    0    0    0
                         0    0    0    0    0
              ixc          11
              kpt      0.00000000E+00  0.00000000E+00  0.00000000E+00
                       1.42857143E-01  0.00000000E+00  0.00000000E+00
                       2.85714286E-01  0.00000000E+00  0.00000000E+00
                       4.28571429E-01  0.00000000E+00  0.00000000E+00
                       0.00000000E+00  1.42857143E-01  0.00000000E+00
                       1.42857143E-01  1.42857143E-01  0.00000000E+00
                       2.85714286E-01  1.42857143E-01  0.00000000E+00
                       4.28571429E-01  1.42857143E-01  0.00000000E+00
                      -4.28571429E-01  1.42857143E-01  0.00000000E+00
                      -2.85714286E-01  1.42857143E-01  0.00000000E+00
                      -1.42857143E-01  1.42857143E-01  0.00000000E+00
                       0.00000000E+00  2.85714286E-01  0.00000000E+00
                       1.42857143E-01  2.85714286E-01  0.00000000E+00
                       2.85714286E-01  2.85714286E-01  0.00000000E+00
                       4.28571429E-01  2.85714286E-01  0.00000000E+00
                      -4.28571429E-01  2.85714286E-01  0.00000000E+00
                      -2.85714286E-01  2.85714286E-01  0.00000000E+00
                      -1.42857143E-01  2.85714286E-01  0.00000000E+00
                       0.00000000E+00  4.28571429E-01  0.00000000E+00
                       1.42857143E-01  4.28571429E-01  0.00000000E+00
                       2.85714286E-01  4.28571429E-01  0.00000000E+00
                       4.28571429E-01  4.28571429E-01  0.00000000E+00
                      -4.28571429E-01  4.28571429E-01  0.00000000E+00
                      -2.85714286E-01  4.28571429E-01  0.00000000E+00
                      -1.42857143E-01  4.28571429E-01  0.00000000E+00
         kptrlatt        7    0    0      0    7    0      0    0    1
          kptrlen      3.68931233E+01
P           mkmem          25
            natom           5
            nband          48
            ngfft          27      27     180
          ngfftdg          30      30     200
             nkpt          25
            nstep         200
             nsym           2
           ntypat           1
              occ      2.000000  2.000000  2.000000  2.000000  2.000000  2.000000
                       2.000000  2.000000  2.000000  2.000000  2.000000  2.000000
                       2.000000  2.000000  2.000000  2.000000  2.000000  2.000000
                       2.000000  2.000000  2.000000  2.000000  2.000000  2.000000
                       2.000000  2.000000  2.000000  2.000000  2.000000  2.000000
                       2.000000  2.000000  2.000000  2.000000  2.000000  2.000000
                       2.000000  2.000000  2.000000  2.000000  2.000000  2.000000
                       2.000000  2.000000  2.000000  2.000000  2.000000  1.943521
                       2.000000  2.000000  2.000000  2.000000  2.000000  2.000000
                       2.000000  2.000000  2.000000  2.000000  2.000000  2.000000
                       2.000000  2.000000  2.000000  2.000000  2.000000  2.000000
                       2.000000  2.000000  2.000000  2.000000  2.000000  2.000000
                       2.000000  2.000000  2.000000  2.000000  2.000000  2.000000
                       2.000000  2.000000  2.000000  2.000000  2.000000  2.000000
                       2.000000  2.000000  2.000000  2.000000  2.000000  2.000000
                       2.000000  2.000000  2.000000  2.000000  2.000000  1.844821
                       2.000000  2.000000  2.000000  2.000000  2.000000  2.000000
                       2.000000  2.000000  2.000000  2.000000  2.000000  2.000000
                       2.000000  2.000000  2.000000  2.000000  2.000000  2.000000
                       2.000000  2.000000  2.000000  2.000000  2.000000  2.000000
                       2.000000  2.000000  2.000000  2.000000  2.000000  2.000000
                       2.000000  2.000000  2.000000  2.000000  2.000000  2.000000
                       2.000000  2.000000  2.000000  2.000000  2.000000  2.000000
                       2.000000  2.000000  2.000000  2.000000  1.057753  0.000004
                       2.000000  2.000000  2.000000  2.000000  2.000000  2.000000
                       2.000000  2.000000  2.000000  2.000000  2.000000  2.000000
                       2.000000  2.000000  2.000000  2.000000  2.000000  2.000000
                       2.000000  2.000000  2.000000  2.000000  2.000000  2.000000
                       2.000000  2.000000  2.000000  2.000000  2.000000  2.000000
                       2.000000  2.000000  2.000000  2.000000  2.000000  2.000000
                       2.000000  2.000000  1.999789  1.999629  1.999304  1.888049
                       0.278371  0.018369  0.001040  0.000000  0.000000  0.000000
                       2.000000  2.000000  2.000000  2.000000  2.000000  2.000000
                       2.000000  2.000000  2.000000  2.000000  2.000000  2.000000
                       2.000000  2.000000  2.000000  2.000000  2.000000  2.000000
                       2.000000  2.000000  2.000000  2.000000  2.000000  2.000000
                       2.000000  2.000000  2.000000  2.000000  2.000000  2.000000
                       2.000000  2.000000  2.000000  2.000000  2.000000  2.000000
                       2.000000  2.000000  2.000000  2.000000  2.000000  2.000000
                       2.000000  2.000000  2.000000  2.000000  2.000000  1.818590
                       2.000000  2.000000  2.000000  2.000000  2.000000  2.000000
                       2.000000  2.000000  2.000000  2.000000  2.000000  2.000000
                       2.000000  2.000000  2.000000  2.000000  2.000000  2.000000
                       2.000000  2.000000  2.000000  2.000000  2.000000  2.000000
                       2.000000  2.000000  2.000000  2.000000  2.000000  2.000000
                       2.000000  2.000000  2.000000  2.000000  2.000000  2.000000
                       2.000000  2.000000  2.000000  2.000000  2.000000  2.000000
                       2.000000  2.000000  2.000000  2.000000  2.000000  1.808466
                       2.000000  2.000000  2.000000  2.000000  2.000000  2.000000
                       2.000000  2.000000  2.000000  2.000000  2.000000  2.000000
                       2.000000  2.000000  2.000000  2.000000  2.000000  2.000000
                       2.000000  2.000000  2.000000  2.000000  2.000000  2.000000
                       2.000000  2.000000  2.000000  2.000000  2.000000  2.000000
                       2.000000  2.000000  2.000000  2.000000  2.000000  2.000000
                       2.000000  2.000000  2.000000  2.000000  2.000000  2.000000
                       2.000000  2.000000  2.000000  2.000000  1.999941  0.000128
                       2.000000  2.000000  2.000000  2.000000  2.000000  2.000000
                       2.000000  2.000000  2.000000  2.000000  2.000000  2.000000
                       2.000000  2.000000  2.000000  2.000000  2.000000  2.000000
                       2.000000  2.000000  2.000000  2.000000  2.000000  2.000000
                       2.000000  2.000000  2.000000  2.000000  2.000000  2.000000
[...]
                       2.000000  2.000000  2.000000  2.000000  2.000000  2.000000
                       2.000000  2.000000  2.000000  2.000000  2.000000  2.000000
                       2.000000  2.000000  2.000000  2.000000  2.000000  2.000000
                       2.000000  2.000000  2.000000  2.000000  2.000000  2.000000
                       2.000000  2.000000  2.000000  2.000000  2.000000  2.000000
                       2.000000  2.000000  2.000000  2.000000  2.000000  2.000000
                       1.999251  1.984341  0.125693  0.000000  0.000000  0.000000
                       2.000000  2.000000  2.000000  2.000000  2.000000  2.000000
                       2.000000  2.000000  2.000000  2.000000  2.000000  2.000000
                       2.000000  2.000000  2.000000  2.000000  2.000000  2.000000
                       2.000000  2.000000  2.000000  2.000000  2.000000  2.000000
                       2.000000  2.000000  2.000000  2.000000  2.000000  2.000000
                       2.000000  2.000000  2.000000  2.000000  2.000000  2.000000
                       2.000000  2.000000  2.000000  2.000000  1.999998  1.999997
                       1.999096  1.830753  0.007435  0.000000  0.000000  0.000000
           occopt           3
        pawecutdg      3.99999870E+01 Hartree
            rprim      2.7890000000E+00  0.0000000000E+00  0.0000000000E+00
                       1.3945000000E+00  2.4153448512E+00  0.0000000000E+00
                       0.0000000000E+00  0.0000000000E+00  1.8217671714E+01
          spgroup           2
           strten      8.8307872389E-05  8.9190793674E-05  5.0359906577E-06
                      -1.0358911816E-06  3.7111911637E-06  1.5768002605E-06
           symrel      1  0  0   0  1  0   0  0  1      -1  0  0   0 -1  0   0  0 -1
            tnons      0.0000000  0.0000000  0.0000000     0.3333333  0.3333333 -0.2500000
           toldfe      3.67493254E-08 Hartree
           tsmear      7.34986508E-04 Hartree
            typat      1  1  1  1  1
           useylm           1
              wtk        0.02041    0.04082    0.04082    0.04082    0.04082    0.04082
                         0.04082    0.04082    0.04082    0.04082    0.04082    0.04082
                         0.04082    0.04082    0.04082    0.04082    0.04082    0.04082
                         0.04082    0.04082    0.04082    0.04082    0.04082    0.04082
                         0.04082
           xangst      1.3945000000E-05 -2.4153448510E-05  2.2867640784E+00
                       1.3945000000E+00  8.0511495038E-01  4.5700346267E+00
                       2.7890000000E+00  1.6102299008E+00  6.8316268926E+00
                       4.1835000000E+00  2.4153448512E+00  9.0932191585E+00
                       5.5779860550E+00  3.2204839550E+00  1.1376489707E+01
            xcart      2.6352230923E-05 -4.5643402849E-05  4.3213578386E+00
                       2.6352230923E+00  1.5214467617E+00  8.6361138623E+00
                       5.2704461846E+00  3.0428935234E+00  1.2909903869E+01
                       7.9056692769E+00  4.5643402852E+00  1.7183693876E+01
                       1.0540866017E+01  6.0858326903E+00  2.1498449900E+01
             xred      9.9999999997E-06 -9.9999999994E-06  1.2552449700E-01
                       3.3333333333E-01  3.3333333333E-01  2.5085722800E-01
                       6.6666666667E-01  6.6666666667E-01  3.7500000000E-01
                       1.0000000000E+00  1.0000000000E+00  4.9914277200E-01
                       1.3333233333E+00  1.3333433333E+00  6.2447550300E-01
            znucl       46.00000

- Timing analysis has been suppressed with timopt=0

 Suggested references for the acknowledgment of ABINIT usage.

 Calculation completed.
.Delivered  73 WARNINGs and   3 COMMENTs to log file.