.Version 8.10.2 of ABINIT

 ABINIT is a project of the Universite Catholique de Louvain,
 Corning Inc. and other collaborators, see ~abinit/doc/developers/contributors.txt .
 acknowledgments of the ABINIT effort.

.Starting date : Wed 10 Jun 2020.
- ( at 16h54 )

 === Build Information ===
  Version       : 8.10.2
  Build target  : x86_64_linux_gnu7.3
  Build date    : 20190408

 === Optimizations ===
  Debug level        : basic
  Optimization level : standard
  Architecture       : intel_xeon

 === Multicore ===
  Parallel build : yes
  Parallel I/O   : yes
  openMP support : no
  GPU support    : no

 === Connectors / Fallbacks ===
  Connectors on : yes
  Fallbacks on  : yes
  FFT flavor    : fftw3
  LINALG flavor : netlib-fallback
  MATH flavor   : none
  TIMER flavor  : abinit
  TRIO flavor   : none

 === Experimental features ===
  Bindings            : @enable_bindings@
  Exports             : no
  GW double-precision : no

 Default optimizations:
   -O2 -mtune=native -march=native

 Optimizations for 43_ptgroups:
   -O0

 CPP options activated during the build:

                    CC_GNU                   CXX_GNU                    FC_GNU

              HAVE_ATOMPAW HAVE_FC_ALLOCATABLE_DT...             HAVE_FC_ASYNC

         HAVE_FC_BACKTRACE  HAVE_FC_COMMAND_ARGUMENT      HAVE_FC_COMMAND_LINE

        HAVE_FC_CONTIGUOUS           HAVE_FC_CPUTIME              HAVE_FC_EXIT

             HAVE_FC_FLUSH             HAVE_FC_GAMMA            HAVE_FC_GETENV

   HAVE_FC_IEEE_EXCEPTIONS          HAVE_FC_INT_QUAD             HAVE_FC_IOMSG

     HAVE_FC_ISO_C_BINDING  HAVE_FC_ISO_FORTRAN_2008        HAVE_FC_LONG_LINES

        HAVE_FC_MOVE_ALLOC           HAVE_FC_PRIVATE         HAVE_FC_PROTECTED

         HAVE_FC_STREAM_IO            HAVE_FC_SYSTEM                  HAVE_FFT

            HAVE_FFT_FFTW3              HAVE_FFT_MPI           HAVE_FFT_SERIAL

          HAVE_FORTRAN2003        HAVE_LIBPAW_ABINIT      HAVE_LIBTETRA_ABINIT

       HAVE_MPI_IALLREDUCE        HAVE_MPI_IALLTOALL       HAVE_MPI_IALLTOALLV

        HAVE_MPI_INTEGER16               HAVE_MPI_IO HAVE_MPI_TYPE_CREATE_S...

             HAVE_OS_LINUX         HAVE_TIMER_ABINIT              USE_MACROAVE

- input  file    -> tudet_2.in
- output file    -> tudet_2.out
- root for input  files -> tudet_1o
- root for output files -> tudet_2o

-instrng: 105 lines of input have been read from file tudet_2.in

 Please give name of formatted atomic psp file
 iofn2 : for atom type 1, psp file is Mn.LDA_PW-JTH.xml

 Please give name of formatted atomic psp file
 iofn2 : for atom type 2, psp file is Ba.LDA_PW-JTH.xml

 Please give name of formatted atomic psp file
 iofn2 : for atom type 3, psp file is F.LDA_PW-JTH.xml
- inpspheads : Reading pseudopotential header in XML form from Mn.LDA_PW-JTH.xml
- inpspheads : Reading pseudopotential header in XML form from Ba.LDA_PW-JTH.xml
- inpspheads : Reading pseudopotential header in XML form from F.LDA_PW-JTH.xml

 inpspheads: deduce mpsang = 3, n1xccc = 1.
 invars1 : treat image number: 1

 symlatt : the Bravais lattice is oC (one-face-centered orthorhombic)
  xred   is defined in input file
 ingeo: takes atomic coordinates from input array xred

 symlatt : the Bravais lattice is oC (one-face-centered orthorhombic)

 symlatt : the Bravais lattice is oC (one-face-centered orthorhombic)
 symspgr : spgroup=  36  Cm c 2_1   (=C2v^12)
 ingeo: angdeg(1:3)=   90.00000000   90.00000000  148.77854029

--- !WARNING
src_file: m_invars1.F90
src_line: 1904
message: |
    usedmft and usepawu are both activated
    This is not an usual calculation:
    usepawu will be put to a value >= 10:
    LDA+U potential and energy will be put to zero
...

 chkneu : initialized the occupation numbers for occopt=    4
    spin up   values :
  1.00  1.00  1.00  1.00  1.00  1.00  1.00  1.00  1.00  1.00  1.00  1.00
  1.00  1.00  1.00  1.00  1.00  1.00  1.00  1.00  1.00  1.00  1.00  1.00
  1.00  1.00  1.00  1.00  1.00  1.00  1.00  1.00  1.00  1.00  1.00  1.00
  1.00  1.00  1.00  1.00  1.00  1.00  1.00  1.00  1.00  1.00  1.00  1.00
  1.00  1.00  1.00  1.00  1.00  0.00  0.00  0.00  0.00  0.00  0.00  0.00
  0.00  0.00  0.00  0.00  0.00  0.00  0.00  0.00  0.00  0.00  0.00  0.00
  0.00  0.00  0.00  0.00  0.00  0.00  0.00  0.00
    spin down values :
  1.00  1.00  1.00  1.00  1.00  1.00  1.00  1.00  1.00  1.00  1.00  1.00
  1.00  1.00  1.00  1.00  1.00  1.00  1.00  1.00  1.00  1.00  1.00  1.00
  1.00  1.00  1.00  1.00  1.00  1.00  1.00  1.00  1.00  1.00  1.00  1.00
  1.00  1.00  1.00  1.00  1.00  1.00  1.00  1.00  1.00  1.00  1.00  1.00
  1.00  1.00  1.00  1.00  1.00  0.00  0.00  0.00  0.00  0.00  0.00  0.00
  0.00  0.00  0.00  0.00  0.00  0.00  0.00  0.00  0.00  0.00  0.00  0.00
  0.00  0.00  0.00  0.00  0.00  0.00  0.00  0.00
mpi_setup: mkmem  undefined in the input file.Use default mkmem  = nkpt
 mpi_setup: With nkpt_me=8 and mkmem  = 8, ground state wf handled in core.
mpi_setup: mkqmem undefined in the input file.Use default mkqmem = nkpt
 mpi_setup: With nkpt_me=8 and mkqmem = 8, ground state wf handled in core.
mpi_setup: mk1mem undefined in the input file.Use default mk1mem = nkpt
 mpi_setup: With nkpt_me=8 and mk1mem = 8, ground state wf handled in core.
getng is called for the coarse grid:
 For input ecut=  1.500000E+01 best grid ngfft=      54      54      40
       max ecut=  1.536452E+01

 ==== FFT mesh ====
  FFT mesh divisions ........................    54   54   40
  Augmented FFT divisions ...................    55   55   40
  FFT algorithm .............................   312
  FFT cache size ............................    16
 getmpw: optimal value of mpw= 3602
getng is called for the fine grid:
 Using supplied coarse mesh as initial guess.
 For input ecut=  3.000000E+01 best grid ngfft=      75      75      60
       max ecut=  3.076696E+01

 ==== FFT mesh ====
  FFT mesh divisions ........................    75   75   60
  Augmented FFT divisions ...................    75   75   60
  FFT algorithm .............................   312
  FFT cache size ............................    16

 Symmetries : space group Cm c 2_1 (# 36); Bravais oC (1-face-center ortho.)

 getdim_nloc : deduce lmnmax  =  18, lnmax  =   6,
                      lmnmaxso=  18, lnmaxso=   6.
     intxc =       0    ionmov =       0      iscf =      17    lmnmax =      18
     lnmax =       6     mgfft =      54  mpssoang =       3    mqgrid =    3001
     natom =      12  nloc_mem =       2    nspden =       2   nspinor =       1
    nsppol =       2      nsym =       4    n1xccc =       1    ntypat =       3
    occopt =       4   xclevel =       1
-    mband =          80        mffmem =           1         mkmem =           8
       mpw =        3602          nfft =      116640          nkpt =           8
 PAW method is used; the additional fine FFT grid is defined by:
   mgfftf=        75    nfftf =    337500
  Rough estimation (10% accuracy) of disk space for files :

 The job will continue.
------------- Echo of variables that govern the present computation ------------
-
- outvars: echo of selected default values
-   iomode0 =  0 , fftalg0 =312 , wfoptalg0 = 10
-
- outvars: echo of global parameters not present in the input file
-  max_nthreads =    0
-
 -outvars: echo values of preprocessed input variables --------
            acell      1.0000000000E+00  1.0000000000E+00  1.0000000000E+00 Bohr
              amu      5.49380500E+01  1.37327000E+02  1.89984032E+01
         atvshift        0.00367    0.00367    0.00367    0.00367    0.00367
                         0.00367    0.00367    0.00367    0.00367    0.00367
                         0.00000    0.00000    0.00000    0.00000    0.00000
                         0.00000    0.00000    0.00000    0.00000    0.00000
                         0.00000    0.00000    0.00000    0.00000    0.00000
                         0.00000    0.00000    0.00000    0.00000    0.00000
                         0.00000    0.00000    0.00000    0.00000    0.00000
                         0.00000    0.00000    0.00000    0.00000    0.00000
                         0.00000    0.00000    0.00000    0.00000    0.00000
                         0.00000    0.00000    0.00000    0.00000    0.00000
                         0.00000    0.00000    0.00000    0.00000    0.00000
                         0.00000    0.00000    0.00000    0.00000    0.00000
                         0.00000    0.00000    0.00000    0.00000    0.00000
                         0.00000    0.00000    0.00000    0.00000    0.00000
                         0.00000    0.00000    0.00000    0.00000    0.00000
                         0.00000    0.00000    0.00000    0.00000    0.00000
                         0.00000    0.00000    0.00000    0.00000    0.00000
                         0.00000    0.00000    0.00000    0.00000    0.00000
                         0.00000    0.00000    0.00000    0.00000    0.00000
                         0.00000    0.00000    0.00000    0.00000    0.00000
                         0.00000    0.00000    0.00000    0.00000    0.00000
                         0.00000    0.00000    0.00000    0.00000    0.00000
                         0.00000    0.00000    0.00000    0.00000    0.00000
                         0.00000    0.00000    0.00000    0.00000    0.00000
           diemix      4.50000000E-01
        dmatpuopt           3
             ecut      1.50000000E+01 Hartree
-          fftalg         312
           irdwfk           1
           istwfk        0    0    0    0    0    0    0    9
              ixc       -1012
              kpt      1.66666667E-01  1.66666667E-01  1.66666667E-01
                       5.00000000E-01  1.66666667E-01  1.66666667E-01
                      -1.66666667E-01  1.66666667E-01  1.66666667E-01
                       5.00000000E-01  5.00000000E-01  1.66666667E-01
                       1.66666667E-01  1.66666667E-01  5.00000000E-01
                       5.00000000E-01  1.66666667E-01  5.00000000E-01
                      -1.66666667E-01  1.66666667E-01  5.00000000E-01
                       5.00000000E-01  5.00000000E-01  5.00000000E-01
         kptrlatt        3    0    0      0    3    0      0    0    3
          kptrlen      2.39296020E+01
            lpawu           2      -1      -1
         macro_uj        1
P           mkmem           8
            natom          12
            nband          80
        natvshift        5
            ngfft          54      54      40
          ngfftdg          75      75      60
             nkpt           8
           nspden           2
           nsppol           2
             nsym           4
           ntypat           3
              occ      1.000000  1.000000  1.000000  1.000000  1.000000  1.000000
                       1.000000  1.000000  1.000000  1.000000  1.000000  1.000000
                       1.000000  1.000000  1.000000  1.000000  1.000000  1.000000
                       1.000000  1.000000  1.000000  1.000000  1.000000  1.000000
                       1.000000  1.000000  1.000000  1.000000  1.000000  1.000000
                       1.000000  1.000000  1.000000  1.000000  1.000000  1.000000
[...]
 Next maximum=    1.9997E+00  at reduced coord.    0.5867    0.5867    0.3167
      Minimum=   -8.5505E-02  at reduced coord.    0.3467    0.3467    0.3667
 Next minimum=   -8.5505E-02  at reduced coord.    0.6533    0.6533    0.8667
   Integrated=    5.2858E+01
 Magnetization (spin up - spin down) [el/Bohr^3]
      Maximum=    5.1747E-03  at reduced coord.    0.7867    0.8267    0.6167
 Next maximum=    5.1747E-03  at reduced coord.    0.8267    0.7867    0.6167
      Minimum=   -1.9712E-03  at reduced coord.    0.9867    0.9867    0.0167
 Next minimum=   -1.9712E-03  at reduced coord.    0.0133    0.0133    0.5167
   Integrated=    2.8295E-01
 Relative magnetization (=zeta, between -1 and 1)
      Maximum=    5.8817E-01  at reduced coord.    0.6133    0.6400    0.8833
 Next maximum=    5.8817E-01  at reduced coord.    0.6400    0.6133    0.8833
      Minimum=   -1.4696E-01  at reduced coord.    0.3600    0.3333    0.3333
 Next minimum=   -1.4696E-01  at reduced coord.    0.3333    0.3600    0.3333

 Cartesian components of stress tensor (hartree/bohr^3)
  sigma(1 1)= -3.47518745E-01  sigma(3 2)=  0.00000000E+00
  sigma(2 2)=  7.77629858E-04  sigma(3 1)=  0.00000000E+00
  sigma(3 3)= -8.12979109E-01  sigma(2 1)=  0.00000000E+00

-Cartesian components of stress tensor (GPa)         [Pressure=  1.1373E+04 GPa]
- sigma(1 1)= -1.02243528E+04  sigma(3 2)=  0.00000000E+00
- sigma(2 2)=  2.28786564E+01  sigma(3 1)=  0.00000000E+00
- sigma(3 3)= -2.39186671E+04  sigma(2 1)=  0.00000000E+00

== END DATASET(S) ==============================================================

 -outvars: echo values of variables after computation  --------
            acell      1.0000000000E+00  1.0000000000E+00  1.0000000000E+00 Bohr
              amu      5.49380500E+01  1.37327000E+02  1.89984032E+01
         atvshift        0.00367    0.00367    0.00367    0.00367    0.00367
                         0.00367    0.00367    0.00367    0.00367    0.00367
                         0.00000    0.00000    0.00000    0.00000    0.00000
                         0.00000    0.00000    0.00000    0.00000    0.00000
                         0.00000    0.00000    0.00000    0.00000    0.00000
                         0.00000    0.00000    0.00000    0.00000    0.00000
                         0.00000    0.00000    0.00000    0.00000    0.00000
                         0.00000    0.00000    0.00000    0.00000    0.00000
                         0.00000    0.00000    0.00000    0.00000    0.00000
                         0.00000    0.00000    0.00000    0.00000    0.00000
                         0.00000    0.00000    0.00000    0.00000    0.00000
                         0.00000    0.00000    0.00000    0.00000    0.00000
                         0.00000    0.00000    0.00000    0.00000    0.00000
                         0.00000    0.00000    0.00000    0.00000    0.00000
                         0.00000    0.00000    0.00000    0.00000    0.00000
                         0.00000    0.00000    0.00000    0.00000    0.00000
                         0.00000    0.00000    0.00000    0.00000    0.00000
                         0.00000    0.00000    0.00000    0.00000    0.00000
                         0.00000    0.00000    0.00000    0.00000    0.00000
                         0.00000    0.00000    0.00000    0.00000    0.00000
                         0.00000    0.00000    0.00000    0.00000    0.00000
                         0.00000    0.00000    0.00000    0.00000    0.00000
                         0.00000    0.00000    0.00000    0.00000    0.00000
                         0.00000    0.00000    0.00000    0.00000    0.00000
           diemix      4.50000000E-01
        dmatpuopt           3
             ecut      1.50000000E+01 Hartree
           etotal      7.2163773658E+02
            fcart      2.1241428678E+03  1.1661077431E-14  3.7622736377E+03
                      -2.1241428678E+03 -1.1739136243E-14  3.7622736377E+03
                      -2.9757097615E+01  7.6416843702E-16  7.8823025291E+00
                       2.9757097615E+01 -3.4444076355E-16  7.8823025291E+00
                       5.1861468260E-01 -3.3349754195E-17 -1.7606973534E+00
                      -5.1861468260E-01 -4.4709057405E-17 -1.7606973534E+00
                       7.4482457465E-01 -3.5912223150E-17  1.3794439654E+00
                      -7.4482457465E-01 -4.2146588450E-17  1.3794439654E+00
                       5.0392284625E-01 -4.8260410363E-17  2.8853454735E-01
                      -5.0392284625E-01 -5.9232016703E-17  2.8853454735E-01
                      -2.0934843810E+03 -2.6837377446E-14 -3.7700632214E+03
                       2.0934843810E+03  2.6759318635E-14 -3.7700632214E+03
-          fftalg         312
           irdwfk           1
           istwfk        0    0    0    0    0    0    0    9
              ixc       -1012
              kpt      1.66666667E-01  1.66666667E-01  1.66666667E-01
                       5.00000000E-01  1.66666667E-01  1.66666667E-01
                      -1.66666667E-01  1.66666667E-01  1.66666667E-01
                       5.00000000E-01  5.00000000E-01  1.66666667E-01
                       1.66666667E-01  1.66666667E-01  5.00000000E-01
                       5.00000000E-01  1.66666667E-01  5.00000000E-01
                      -1.66666667E-01  1.66666667E-01  5.00000000E-01
                       5.00000000E-01  5.00000000E-01  5.00000000E-01
         kptrlatt        3    0    0      0    3    0      0    0    3
          kptrlen      2.39296020E+01
            lpawu           2      -1      -1
         macro_uj        1
P           mkmem           8
            natom          12
            nband          80
        natvshift        5
            ngfft          54      54      40
          ngfftdg          75      75      60
             nkpt           8
           nspden           2
           nsppol           2
             nsym           4
           ntypat           3
              occ      1.000000  1.000000  1.000000  1.000000  1.000000  1.000000
                       1.000000  1.000000  1.000000  1.000000  1.000000  1.000000
                       1.000000  1.000000  1.000000  1.000000  1.000000  1.000000
                       1.000000  1.000000  1.000000  1.000000  1.000000  1.000000
                       1.000000  1.000000  1.000000  1.000000  1.000000  1.000000
                       1.000000  1.000000  1.000000  1.000000  1.000000  1.000000
                       1.000000  1.000000  1.000000  1.000000  1.000000  1.000000
                       1.000000  1.000000  1.000000  1.000000  1.000000  1.000000
                       1.000000  1.000000  1.000000  1.000000  1.000000  0.000638
                       0.000000  0.000000  0.000000  0.000000  0.000000  0.000000
                       0.000000  0.000000  0.000000  0.000000  0.000000  0.000000
                       0.000000  0.000000  0.000000  0.000000  0.000000  0.000000
                       0.000000  0.000000  0.000000  0.000000  0.000000  0.000000
                       0.000000  0.000000
                       1.000000  1.000000  1.000000  1.000000  1.000000  1.000000
                       1.000000  1.000000  1.000000  1.000000  1.000000  1.000000
                       1.000000  1.000000  1.000000  1.000000  1.000000  1.000000
                       1.000000  1.000000  1.000000  1.000000  1.000000  1.000000
                       1.000000  1.000000  1.000000  1.000000  1.000000  1.000000
                       1.000000  1.000000  1.000000  1.000000  1.000000  1.000000
                       1.000000  1.000000  1.000000  1.000000  1.000000  1.000000
                       1.000000  1.000000  1.000000  1.000000  1.000000  1.000000
                       1.000000  1.000000  1.000000  1.000000  1.000000  0.000107
                       0.000000  0.000000  0.000000  0.000000  0.000000  0.000000
                       0.000000  0.000000  0.000000  0.000000  0.000000  0.000000
                       0.000000  0.000000  0.000000  0.000000  0.000000  0.000000
                       0.000000  0.000000  0.000000  0.000000  0.000000  0.000000
                       0.000000  0.000000
                       1.000000  1.000000  1.000000  1.000000  1.000000  1.000000
                       1.000000  1.000000  1.000000  1.000000  1.000000  1.000000
                       1.000000  1.000000  1.000000  1.000000  1.000000  1.000000
                       1.000000  1.000000  1.000000  1.000000  1.000000  1.000000
                       1.000000  1.000000  1.000000  1.000000  1.000000  1.000000
                       1.000000  1.000000  1.000000  1.000000  1.000000  1.000000
                       1.000000  1.000000  1.000000  1.000000  1.000000  1.000000
                       1.000000  1.000000  1.000000  1.000000  1.000000  1.000000
                       1.000000  1.000000  1.000000  1.000000  1.059967  0.000003
                       0.000000  0.000000  0.000000  0.000000  0.000000  0.000000
                       0.000000  0.000000  0.000000  0.000000  0.000000  0.000000
                       0.000000  0.000000  0.000000  0.000000  0.000000  0.000000
                       0.000000  0.000000  0.000000  0.000000  0.000000  0.000000
                       0.000000  0.000000
                       1.000000  1.000000  1.000000  1.000000  1.000000  1.000000
                       1.000000  1.000000  1.000000  1.000000  1.000000  1.000000
                       1.000000  1.000000  1.000000  1.000000  1.000000  1.000000
                       1.000000  1.000000  1.000000  1.000000  1.000000  1.000000
                       1.000000  1.000000  1.000000  1.000000  1.000000  1.000000
                       1.000000  1.000000  1.000000  1.000000  1.000000  1.000000
                       1.000000  1.000000  1.000000  1.000000  1.000000  1.000000
                       1.000000  1.000000  1.000000  1.000000  1.000000  1.000000
                       1.000000  1.000000  1.000000  1.000000  1.069517  0.000000
                       0.000000  0.000000  0.000000  0.000000  0.000000  0.000000
                       0.000000  0.000000  0.000000  0.000000  0.000000  0.000000
                       0.000000  0.000000  0.000000  0.000000  0.000000  0.000000
                       0.000000  0.000000  0.000000  0.000000  0.000000  0.000000
                       0.000000  0.000000
                       1.000000  1.000000  1.000000  1.000000  1.000000  1.000000
                       1.000000  1.000000  1.000000  1.000000  1.000000  1.000000
                       1.000000  1.000000  1.000000  1.000000  1.000000  1.000000
                       1.000000  1.000000  1.000000  1.000000  1.000000  1.000000
                       1.000000  1.000000  1.000000  1.000000  1.000000  1.000000
[...]
                       0.000000  0.000000
                       1.000000  1.000000  1.000000  1.000000  1.000000  1.000000
                       1.000000  1.000000  1.000000  1.000000  1.000000  1.000000
                       1.000000  1.000000  1.000000  1.000000  1.000000  1.000000
                       1.000000  1.000000  1.000000  1.000000  1.000000  1.000000
                       1.000000  1.000000  1.000000  1.000000  1.000000  1.000000
                       1.000000  1.000000  1.000000  1.000000  1.000000  1.000000
                       1.000000  1.000000  1.000000  1.000000  1.000000  1.000000
                       1.000000  1.000000  1.000000  1.000000  1.000000  1.000000
                       1.000000  1.000000  1.000000  1.000000  0.000001  0.000001
                       0.000000  0.000000  0.000000  0.000000  0.000000  0.000000
                       0.000000  0.000000  0.000000  0.000000  0.000000  0.000000
                       0.000000  0.000000  0.000000  0.000000  0.000000  0.000000
                       0.000000  0.000000  0.000000  0.000000  0.000000  0.000000
                       0.000000  0.000000
           occopt           4
        pawecutdg      3.00000000E+01 Hartree
          pawovlp     -1.0000000000E+00
         pawujrad      2.6686600000E+00 Bohr
           prtden           0
           prteig           0
            prtwf           0
            rprim      3.9882670035E+00 -1.4274046345E+01  0.0000000000E+00
                       3.9882670035E+00  1.4274046345E+01  0.0000000000E+00
                       0.0000000000E+00  0.0000000000E+00  1.1334577345E+01
           shiftk      5.00000000E-01  5.00000000E-01  5.00000000E-01
          spgroup          36
           strten     -3.4751874503E-01  7.7762985750E-04 -8.1297910875E-01
                       0.0000000000E+00  0.0000000000E+00  0.0000000000E+00
           symrel      1  0  0   0  1  0   0  0  1       0 -1  0  -1  0  0   0  0  1
                      -1  0  0   0 -1  0   0  0  1       0  1  0   1  0  0   0  0  1
            tnons      0.0000000  0.0000000  0.0000000     0.0000000  0.0000000  0.5000000
                       0.0000000  0.0000000  0.5000000     0.0000000  0.0000000  0.0000000
           tolvrs      1.00000000E-05
           tsmear      1.83746627E-03 Hartree
            typat      1  1  2  2  3  3  3  3  3  3  3  3
          usepawu           1
           useylm           1
              wtk        0.14815    0.29630    0.14815    0.07407    0.07407    0.14815
                         0.07407    0.03704
           xangst      2.4770094300E+00 -1.3571254261E-16  1.9439518000E+00
                       1.7439905700E+00 -2.3289064217E-16  4.9429518000E+00
                       1.4872693500E+00 -7.2925370442E-17  2.1682770000E+00
                       2.7337306500E+00  7.2925370442E-17  5.1672770000E+00
                       1.2029850000E-01  4.0653274622E-17  0.0000000000E+00
                       4.1007015000E+00 -8.8011655580E-16  2.9990000000E+00
                       7.0659540000E-01 -4.8089492895E-17  3.5664108000E+00
                       3.5144046000E+00  1.2230989351E-15  5.6741080000E-01
                       8.3702430000E-01  4.7183275360E-17  7.4255240000E-01
                       3.3839757000E+00 -1.1207921254E-15  3.7415524000E+00
                       2.4367833000E+00 -8.2112970770E-17  1.8719758000E+00
                       1.7842167000E+00  6.0281704368E-16  4.8709758000E+00
            xcart      4.6808694513E+00 -2.5645953834E-16  3.6735365175E+00
                       3.2956645556E+00 -4.4009953261E-16  9.3408251901E+00
                       2.8105317573E+00 -1.3780897828E-16  4.0974497102E+00
                       5.1660022496E+00  1.3780897828E-16  9.7647383828E+00
                       2.2733121920E-01  7.6823555441E-17  0.0000000000E+00
                       7.7492027877E+00 -1.6631792555E-15  5.6672886725E+00
                       1.3352717928E+00 -9.0875971441E-17  6.7395396894E+00
                       6.6412622142E+00  2.3113220207E-15  1.0722510168E+00
                       1.5817466936E+00  8.9163468482E-17  1.4032206753E+00
                       6.3947873133E+00 -2.1179901690E-15  7.0705093478E+00
                       4.6048530822E+00 -1.5517102671E-16  3.5375215894E+00
                       3.3716809247E+00  1.1391591208E-15  9.2048102619E+00
             xred      5.8683000000E-01  5.8683000000E-01  3.2410000000E-01
                       4.1317000000E-01  4.1317000000E-01  8.2410000000E-01
                       3.5235000000E-01  3.5235000000E-01  3.6150000000E-01
                       6.4765000000E-01  6.4765000000E-01  8.6150000000E-01
                       2.8500000000E-02  2.8500000000E-02  0.0000000000E+00
                       9.7150000000E-01  9.7150000000E-01  5.0000000000E-01
                       1.6740000000E-01  1.6740000000E-01  5.9460000000E-01
                       8.3260000000E-01  8.3260000000E-01  9.4600000000E-02
                       1.9830000000E-01  1.9830000000E-01  1.2380000000E-01
                       8.0170000000E-01  8.0170000000E-01  6.2380000000E-01
                       5.7730000000E-01  5.7730000000E-01  3.1210000000E-01
                       4.2270000000E-01  4.2270000000E-01  8.1210000000E-01
            znucl       25.00000   56.00000    9.00000

 Suggested references for the acknowledgment of ABINIT usage.

 Calculation completed.
.Delivered  23 WARNINGs and   1 COMMENTs to log file.

--- !FinalSummary
program: abinit
version: 8.10.2
start_datetime: Wed Jun 10 16:54:56 2020
end_datetime: Wed Jun 10 17:08:11 2020
overall_cpu_time:         795.2
overall_wall_time:         795.3
exit_requested_by_user: no
timelimit: 0
pseudos:
    Mn  : 9008e5f67bea73393fdbc714b0faf1db
    Ba  : 82b5a1e111582192e008e76746a3ed29
    F   : 1fa94afa667103f21614e64a4eb6ad7a
usepaw: 1
mpi_procs: 1
omp_threads: 1
num_warnings: 23
num_comments: 1
...