.Version 6.2.3  of ABINIT

 ABINIT is a project of the Universite Catholique de Louvain,
 Corning Inc. and other collaborators, see ~abinit/doc/developers/contributors.txt .
 Please read ~abinit/doc/users/acknowledgments.html for suggested
 acknowledgments of the ABINIT effort.

.Starting date : Fri 17 Sep 2010.

- input  file    -> geom.in
- output file    -> geom.out
- root for input  files -> geom_i
- root for output files -> geom_o

 DATASET    1 : space group Pm m 2 (# 25); Bravais oP (primitive ortho.)
   intxc =         0  ionmov =         6    iscf =         7 xclevel =         1
  lmnmax =         5   lnmax =         5   mband =        21  mffmem =         1
P  mgfft =       120   mkmem =         1 mpssoang=         3     mpw =     55938
  mqgrid =      3001   natom =         5    nfft =   1728000    nkpt =         1
  nloalg =         4  nspden =         1 nspinor =         1  nsppol =         1
    nsym =         4  n1xccc =         0  ntypat =         3  occopt =         1
  Rough estimation (10% accuracy) of disk space for files :

 DATASET    2 : space group C2 (#  5); Bravais mC (1-face-center monocl.)
   intxc =         0  ionmov =         6    iscf =         7 xclevel =         1
  lmnmax =         5   lnmax =         5   mband =        21  mffmem =         1
P  mgfft =       120   mkmem =         1 mpssoang=         3     mpw =     55938
  mqgrid =      3001   natom =         5    nfft =   1728000    nkpt =         1
  nloalg =         4  nspden =         1 nspinor =         1  nsppol =         1
    nsym =         2  n1xccc =         0  ntypat =         3  occopt =         1
  Rough estimation (10% accuracy) of disk space for files :

 DATASET    3 : space group Pm m m (# 47); Bravais oP (primitive ortho.)
   intxc =         0  ionmov =         6    iscf =         7 xclevel =         1
  lmnmax =         5   lnmax =         5   mband =        21  mffmem =         1
P  mgfft =       120   mkmem =         1 mpssoang=         3     mpw =     55938
  mqgrid =      3001   natom =         5    nfft =   1728000    nkpt =         1
  nloalg =         4  nspden =         1 nspinor =         1  nsppol =         1
    nsym =         8  n1xccc =         0  ntypat =         3  occopt =         1
  Rough estimation (10% accuracy) of disk space for files :

 DATASET    4 : space group Pm m 2 (# 25); Bravais oP (primitive ortho.)
   intxc =         0  ionmov =         6    iscf =         7 xclevel =         1
  lmnmax =         5   lnmax =         5   mband =        21  mffmem =         1
P  mgfft =       120   mkmem =         1 mpssoang=         3     mpw =     55938
  mqgrid =      3001   natom =         5    nfft =   1728000    nkpt =         1
  nloalg =         4  nspden =         1 nspinor =         1  nsppol =         1
    nsym =         4  n1xccc =         0  ntypat =         3  occopt =         1
  Rough estimation (10% accuracy) of disk space for files :

 -outvars: echo values of preprocessed input variables --------
            acell    1.4000000000E+01  1.4000000000E+01  1.4000000000E+01 Bohr
              amu    5.19961000E+01  1.59994000E+01  3.54527000E+01
           diemac    2.00000000E+00
             ecut    9.00000000E+01 Hartree
           ionmov         6
           istwfk      2
           jdtset      1    2    3    4
           kptopt         0
P           mkmem         1
            natom         5
            nband        21
           ndtset         4
            ngfft       120     120     120
             nkpt         1
            nstep        50
             nsym1        4
             nsym2        2
             nsym3        8
             nsym4        4
           ntypat         3
              occ    2.000000  2.000000  2.000000  2.000000  2.000000  2.000000
                     2.000000  2.000000  2.000000  2.000000  2.000000  2.000000
                     2.000000  2.000000  2.000000  2.000000  2.000000  2.000000
                     2.000000  2.000000  0.000000
          spgroup1       25
          spgroup2        5
          spgroup3       47
          spgroup4       25
           symafm1     1    1    1    1
           symafm2     1    1
           symafm3     1    1    1    1    1    1    1    1
           symafm4     1    1    1    1
           symrel1   1  0  0   0  1  0   0  0  1       1  0  0   0 -1  0   0  0  1
                    -1  0  0   0 -1  0   0  0  1      -1  0  0   0  1  0   0  0  1
           symrel2   1  0  0   0  1  0   0  0  1       0 -1  0  -1  0  0   0  0 -1
           symrel3   1  0  0   0  1  0   0  0  1      -1  0  0   0 -1  0   0  0 -1
                    -1  0  0   0  1  0   0  0 -1       1  0  0   0 -1  0   0  0  1
                    -1  0  0   0 -1  0   0  0  1       1  0  0   0  1  0   0  0 -1
                     1  0  0   0 -1  0   0  0 -1      -1  0  0   0  1  0   0  0  1
           symrel4   1  0  0   0  1  0   0  0  1       1  0  0   0 -1  0   0  0  1
                    -1  0  0   0 -1  0   0  0  1      -1  0  0   0  1  0   0  0  1
            tnons1   0.0000000  0.0000000  0.0000000     0.0000000  0.0000000  0.0000000
                     0.0000000  0.0000000  0.0000000     0.0000000  0.0000000  0.0000000
            tnons2   0.0000000  0.0000000  0.0000000     0.0000000  0.0000000  0.0000000
            tnons3   0.0000000  0.0000000  0.0000000     0.0000000  0.0000000  0.0000000
                     0.0000000  0.0000000  0.0000000     0.0000000  0.0000000  0.0000000
                     0.0000000  0.0000000  0.0000000     0.0000000  0.0000000  0.0000000
                     0.0000000  0.0000000  0.0000000     0.0000000  0.0000000  0.0000000
            tnons4   0.0000000  0.0000000  0.0000000     0.0000000  0.0000000  0.0000000
                     0.0000000  0.0000000  0.0000000     0.0000000  0.0000000  0.0000000
           toldff    5.00000000E-06
            typat    1  2  2  3  3
           xangst1   0.0000000000E+00  0.0000000000E+00  0.0000000000E+00
                     0.0000000000E+00  1.2463181617E+00  9.5463568430E-01
                     0.0000000000E+00 -1.2463181617E+00  9.5463568430E-01
                     1.7704681868E+00  0.0000000000E+00 -1.1659361437E+00
                    -1.7704681868E+00  0.0000000000E+00 -1.1659361437E+00
           xangst2   0.0000000000E+00  0.0000000000E+00  0.0000000000E+00
                     0.0000000000E+00  1.2463181617E+00  9.5463568430E-01
                    -1.2463181617E+00  0.0000000000E+00 -9.5463568430E-01
                     1.7704681868E+00  0.0000000000E+00 -1.1659361437E+00
                     0.0000000000E+00 -1.7704681868E+00  1.1659361437E+00
           xangst3   0.0000000000E+00  0.0000000000E+00  0.0000000000E+00
                     0.0000000000E+00  1.5699100247E+00  0.0000000000E+00
                     0.0000000000E+00 -1.5699100247E+00  0.0000000000E+00
                     2.1198838976E+00  0.0000000000E+00  0.0000000000E+00
                    -2.1198838976E+00  0.0000000000E+00  0.0000000000E+00
           xangst4   0.0000000000E+00  0.0000000000E+00  0.0000000000E+00
                     0.0000000000E+00  1.2463181617E+00  9.5463568430E-01
                     0.0000000000E+00 -1.2463181617E+00  9.5463568430E-01
                     1.7704681868E+00  0.0000000000E+00  1.1659361437E+00
                    -1.7704681868E+00  0.0000000000E+00  1.1659361437E+00
            xcart1   0.0000000000E+00  0.0000000000E+00  0.0000000000E+00
                     0.0000000000E+00  2.3552000000E+00  1.8040000000E+00
                     0.0000000000E+00 -2.3552000000E+00  1.8040000000E+00
                     3.3457000000E+00  0.0000000000E+00 -2.2033000000E+00
                    -3.3457000000E+00  0.0000000000E+00 -2.2033000000E+00
            xcart2   0.0000000000E+00  0.0000000000E+00  0.0000000000E+00
                     0.0000000000E+00  2.3552000000E+00  1.8040000000E+00
                    -2.3552000000E+00  0.0000000000E+00 -1.8040000000E+00
                     3.3457000000E+00  0.0000000000E+00 -2.2033000000E+00
                     0.0000000000E+00 -3.3457000000E+00  2.2033000000E+00
            xcart3   0.0000000000E+00  0.0000000000E+00  0.0000000000E+00
                     0.0000000000E+00  2.9667000000E+00  0.0000000000E+00
                     0.0000000000E+00 -2.9667000000E+00  0.0000000000E+00
                     4.0060000000E+00  0.0000000000E+00  0.0000000000E+00
                    -4.0060000000E+00  0.0000000000E+00  0.0000000000E+00
            xcart4   0.0000000000E+00  0.0000000000E+00  0.0000000000E+00
                     0.0000000000E+00  2.3552000000E+00  1.8040000000E+00
                     0.0000000000E+00 -2.3552000000E+00  1.8040000000E+00
                     3.3457000000E+00  0.0000000000E+00  2.2033000000E+00
                    -3.3457000000E+00  0.0000000000E+00  2.2033000000E+00
             xred1   0.0000000000E+00  0.0000000000E+00  0.0000000000E+00
                     0.0000000000E+00  1.6822857143E-01  1.2885714286E-01
                     0.0000000000E+00 -1.6822857143E-01  1.2885714286E-01
                     2.3897857143E-01  0.0000000000E+00 -1.5737857143E-01
                    -2.3897857143E-01  0.0000000000E+00 -1.5737857143E-01
             xred2   0.0000000000E+00  0.0000000000E+00  0.0000000000E+00
                     0.0000000000E+00  1.6822857143E-01  1.2885714286E-01
                    -1.6822857143E-01  0.0000000000E+00 -1.2885714286E-01
                     2.3897857143E-01  0.0000000000E+00 -1.5737857143E-01
                     0.0000000000E+00 -2.3897857143E-01  1.5737857143E-01
             xred3   0.0000000000E+00  0.0000000000E+00  0.0000000000E+00
                     0.0000000000E+00  2.1190714286E-01  0.0000000000E+00
                     0.0000000000E+00 -2.1190714286E-01  0.0000000000E+00
                     2.8614285714E-01  0.0000000000E+00  0.0000000000E+00
                    -2.8614285714E-01  0.0000000000E+00  0.0000000000E+00
             xred4   0.0000000000E+00  0.0000000000E+00  0.0000000000E+00
                     0.0000000000E+00  1.6822857143E-01  1.2885714286E-01
                     0.0000000000E+00 -1.6822857143E-01  1.2885714286E-01
                     2.3897857143E-01  0.0000000000E+00  1.5737857143E-01
                    -2.3897857143E-01  0.0000000000E+00  1.5737857143E-01
            znucl     24.00000    8.00000   17.00000

 chkinp: Checking input parameters for consistency, jdtset= 1.

[...]

 chkinp: Checking input parameters for consistency, jdtset= 4.

== DATASET  1 ==================================================================

 Real(R)+Recip(G) space primitive vectors, cartesian coordinates (Bohr,Bohr^-1):
 R(1)= 14.0000000  0.0000000  0.0000000  G(1)=  0.0714286  0.0000000  0.0000000
 R(2)=  0.0000000 14.0000000  0.0000000  G(2)=  0.0000000  0.0714286  0.0000000
 R(3)=  0.0000000  0.0000000 14.0000000  G(3)=  0.0000000  0.0000000  0.0714286
 Unit cell volume ucvol=  2.7440000E+03 bohr^3
 Angles (23,13,12)=  9.00000000E+01  9.00000000E+01  9.00000000E+01 degrees

 getcut: wavevector=  0.0000  0.0000  0.0000  ngfft= 120 120 120
         ecut(hartree)=     90.000   => boxcut(ratio)=   2.00709

[...]
  0.00000000000000E+00  0.00000000000000E+00  0.00000000000000E+00
  0.00000000000000E+00  0.00000000000000E+00  0.00000000000000E+00
 At the end of Moldyn step     0, POT.En.= -1.48596837570835E+02 Ha.
                              KIN+POT.En.= -1.48596837570835E+02 Ha.

 ----iterations are completed or convergence reached----

 Mean square residual over all n,k,spin=   1.5187E-07; max=  3.1889E-06
   0.0000  0.0000  0.0000    1  3.18895E-06 kpt; spin; max resid(k); each band:
  4.74E-12 4.87E-13 1.43E-12 4.34E-13 1.14E-12 5.31E-13 3.68E-13 5.37E-13
  1.94E-12 4.11E-14 1.70E-12 3.93E-13 1.31E-12 3.04E-12 3.77E-13 2.93E-13
  3.46E-13 4.34E-12 2.83E-13 2.64E-10 3.19E-06
 reduced coordinates (array xred) for    5 atoms
       0.000000000000      0.000000000000      0.000000000000
       0.000000000000      0.168228571429      0.128857142857
       0.000000000000     -0.168228571429      0.128857142857
       0.238978571429      0.000000000000      0.157378571429
      -0.238978571429      0.000000000000      0.157378571429
 rms dE/dt=  5.9735E-01; max dE/dt=  1.2982E+00; dE/dt below (all hartree)
    1       0.000000000000      0.000000000000     -0.121549071445
    2       0.000000000000     -1.298226273617      0.115715042805
    3       0.000000000000      1.298226273617      0.115715042805
    4      -0.983398405954      0.000000000000     -0.054323053633
    5       0.983398405954      0.000000000000     -0.054323053633

 cartesian coordinates (angstrom) at end:
    1      0.00000000000000     0.00000000000000     0.00000000000000
    2      0.00000000000000     1.24631816167117     0.95463568429636
    3      0.00000000000000    -1.24631816167117     0.95463568429636
    4      1.77046818677956     0.00000000000000     1.16593614368635
    5     -1.77046818677956     0.00000000000000     1.16593614368635

 cartesian forces (hartree/bohr) at end:
    1     -0.00000000000000    -0.00000000000000     0.00869971805892
    2     -0.00000000000000     0.09273044811551    -0.00824771867322
    3     -0.00000000000000    -0.09273044811551    -0.00824771867322
    4      0.07024274328246    -0.00000000000000     0.00389785964375
    5     -0.07024274328246    -0.00000000000000     0.00389785964375
 frms,max,avg= 4.2667770E-02 9.2730448E-02   0.000E+00  0.000E+00 -1.764E-05 h/b

 cartesian forces (eV/Angstrom) at end:
    1     -0.00000000000000    -0.00000000000000     0.44735745178052
    2     -0.00000000000000     4.76839096283897    -0.42411471080581
    3     -0.00000000000000    -4.76839096283897    -0.42411471080581
    4      3.61202678386598    -0.00000000000000     0.20043598491555
    5     -3.61202678386598    -0.00000000000000     0.20043598491555
 frms,max,avg= 2.1940648E+00 4.7683910E+00   0.000E+00  0.000E+00 -9.072E-04 e/A
 length scales= 14.000000000000 14.000000000000 14.000000000000 bohr
              =  7.408480920260  7.408480920260  7.408480920260 angstroms
 prteigrs : about to open file geom_o_DS4_EIG
 Fermi (or HOMO) energy (hartree) =  -0.14519   Average Vxc (hartree)=  -0.11763
 Eigenvalues (hartree) for nkpt=   1  k points:
 kpt#   1, nband= 21, wtk=  1.00000, kpt=  0.0000  0.0000  0.0000 (reduced coord)
  -2.83678  -1.75882  -1.75491  -1.72891  -0.82523  -0.79469  -0.68825  -0.65902
  -0.36336  -0.36038  -0.34724  -0.31965  -0.29914  -0.28895  -0.24694  -0.23470
  -0.20255  -0.18807  -0.15311  -0.14519  -0.10917
 Total charge density [el/Bohr^3]
,     Maximum=    2.4724E+00  at reduced coord.    0.9750    0.9750    0.9833
,Next maximum=    2.4724E+00  at reduced coord.    0.0250    0.9750    0.9833
,     Minimum=    1.4973E-08  at reduced coord.    0.5000    0.5000    0.5750
,Next minimum=    1.5167E-08  at reduced coord.    0.5000    0.5000    0.6167

 Components of total free energy (in Hartree) :

    Kinetic energy  =  7.92182878142976E+01
    Hartree energy  =  1.35278502686759E+02
    XC energy       = -2.23529632955222E+01
    Ewald energy    =  7.89205347074480E+00
    PspCore energy  =  2.12654410691641E-01
    Loc. psp. energy= -3.50832918201165E+02
    NL   psp  energy=  1.98754554335851E+00
    >>>>>>>>> Etotal= -1.48596837570835E+02

 Other information on the energy :
    Total energy(eV)= -4.04352558752206E+03 ; Band energy (Ha)=  -2.8391740474E+01

 Cartesian components of stress tensor (hartree/bohr^3)
  sigma(1 1)= -9.44237272E-05  sigma(3 2)=  0.00000000E+00
  sigma(2 2)= -1.13288128E-04  sigma(3 1)=  0.00000000E+00
  sigma(3 3)=  5.45845157E-05  sigma(2 1)=  0.00000000E+00

-Cartesian components of stress tensor (GPa)         [Pressure=  1.5017E+00 GPa]
- sigma(1 1)= -2.77804150E+00  sigma(3 2)=  0.00000000E+00
- sigma(2 2)= -3.33305123E+00  sigma(3 1)=  0.00000000E+00
- sigma(3 3)=  1.60593163E+00  sigma(2 1)=  0.00000000E+00

== END DATASET(S) ==============================================================

 -outvars: echo values of variables after computation  --------
            acell    1.4000000000E+01  1.4000000000E+01  1.4000000000E+01 Bohr
              amu    5.19961000E+01  1.59994000E+01  3.54527000E+01
           diemac    2.00000000E+00
             ecut    9.00000000E+01 Hartree
           etotal1  -1.4885018002E+02
           etotal2  -1.4885214080E+02
           etotal3  -1.4861535018E+02
           etotal4  -1.4859683757E+02
            fcart1  -3.4694469520E-19 -0.0000000000E+00  1.9322342622E-02
                    -3.4694469520E-19 -9.0930059859E-03 -1.7393994183E-02
                    -3.4694469520E-19  9.0930059859E-03 -1.7393994183E-02
                    -1.1377482680E-02 -0.0000000000E+00  7.7328228719E-03
                     1.1377482680E-02 -0.0000000000E+00  7.7328228719E-03
            fcart2   5.4468359561E-03 -5.4468359561E-03 -0.0000000000E+00
                    -3.5732155689E-03 -1.1424272392E-02 -1.2777014855E-02
                     1.1424272392E-02  3.5732155689E-03  1.2777014855E-02
                    -1.1598892755E-02  1.6990000243E-03  7.6256116677E-03
                    -1.6990000243E-03  1.1598892755E-02 -7.6256116677E-03
            fcart3  -0.0000000000E+00 -0.0000000000E+00 -0.0000000000E+00
                    -0.0000000000E+00  7.3459438654E-02 -0.0000000000E+00
                    -0.0000000000E+00 -7.3459438654E-02 -0.0000000000E+00
                     3.9716690178E-03 -0.0000000000E+00 -0.0000000000E+00
                    -3.9716690178E-03 -0.0000000000E+00 -0.0000000000E+00
            fcart4  -0.0000000000E+00 -0.0000000000E+00  8.6997180589E-03
                    -0.0000000000E+00  9.2730448116E-02 -8.2477186732E-03
                    -0.0000000000E+00 -9.2730448116E-02 -8.2477186732E-03
                     7.0242743282E-02 -0.0000000000E+00  3.8978596438E-03
                    -7.0242743282E-02 -0.0000000000E+00  3.8978596438E-03
           ionmov         6
           istwfk      2
           jdtset      1    2    3    4
           kptopt         0
P           mkmem         1
            natom         5
            nband        21
           ndtset         4
            ngfft       120     120     120
             nkpt         1
            nstep        50
             nsym1        4
             nsym2        2
             nsym3        8
             nsym4        4
           ntypat         3
              occ    2.000000  2.000000  2.000000  2.000000  2.000000  2.000000
                     2.000000  2.000000  2.000000  2.000000  2.000000  2.000000
                     2.000000  2.000000  2.000000  2.000000  2.000000  2.000000
                     2.000000  2.000000  0.000000
          spgroup1       25
          spgroup2        5
          spgroup3       47
          spgroup4       25
           strten1   7.2978137023E-05  6.1199993677E-05  8.2020870413E-05
                     0.0000000000E+00  0.0000000000E+00  0.0000000000E+00
           strten2   7.2475289991E-05  7.2475289991E-05  7.5322664864E-05
                     1.7576908089E-06  1.7576908089E-06  6.6744945270E-07
           strten3   3.0039402532E-05  1.7373665453E-05  5.4694966700E-05
                     0.0000000000E+00  0.0000000000E+00  0.0000000000E+00
           strten4  -9.4423727232E-05 -1.1328812786E-04  5.4584515720E-05
                     0.0000000000E+00  0.0000000000E+00  0.0000000000E+00
           symafm1     1    1    1    1
           symafm2     1    1
           symafm3     1    1    1    1    1    1    1    1
           symafm4     1    1    1    1
           symrel1   1  0  0   0  1  0   0  0  1       1  0  0   0 -1  0   0  0  1
                    -1  0  0   0 -1  0   0  0  1      -1  0  0   0  1  0   0  0  1
           symrel2   1  0  0   0  1  0   0  0  1       0 -1  0  -1  0  0   0  0 -1
           symrel3   1  0  0   0  1  0   0  0  1      -1  0  0   0 -1  0   0  0 -1
                    -1  0  0   0  1  0   0  0 -1       1  0  0   0 -1  0   0  0  1
                    -1  0  0   0 -1  0   0  0  1       1  0  0   0  1  0   0  0 -1
                     1  0  0   0 -1  0   0  0 -1      -1  0  0   0  1  0   0  0  1
           symrel4   1  0  0   0  1  0   0  0  1       1  0  0   0 -1  0   0  0  1
                    -1  0  0   0 -1  0   0  0  1      -1  0  0   0  1  0   0  0  1
            tnons1   0.0000000  0.0000000  0.0000000     0.0000000  0.0000000  0.0000000
                     0.0000000  0.0000000  0.0000000     0.0000000  0.0000000  0.0000000
            tnons2   0.0000000  0.0000000  0.0000000     0.0000000  0.0000000  0.0000000
            tnons3   0.0000000  0.0000000  0.0000000     0.0000000  0.0000000  0.0000000
                     0.0000000  0.0000000  0.0000000     0.0000000  0.0000000  0.0000000
                     0.0000000  0.0000000  0.0000000     0.0000000  0.0000000  0.0000000
                     0.0000000  0.0000000  0.0000000     0.0000000  0.0000000  0.0000000
            tnons4   0.0000000  0.0000000  0.0000000     0.0000000  0.0000000  0.0000000
                     0.0000000  0.0000000  0.0000000     0.0000000  0.0000000  0.0000000
           toldff    5.00000000E-06
            typat    1  2  2  3  3
           xangst1   0.0000000000E+00  0.0000000000E+00  0.0000000000E+00
                     0.0000000000E+00  1.2463181617E+00  9.5463568430E-01
                     0.0000000000E+00 -1.2463181617E+00  9.5463568430E-01
                     1.7704681868E+00  0.0000000000E+00 -1.1659361437E+00
                    -1.7704681868E+00  0.0000000000E+00 -1.1659361437E+00
           xangst2   0.0000000000E+00  0.0000000000E+00  0.0000000000E+00
                     0.0000000000E+00  1.2463181617E+00  9.5463568430E-01
                    -1.2463181617E+00  0.0000000000E+00 -9.5463568430E-01
                     1.7704681868E+00  0.0000000000E+00 -1.1659361437E+00
                     0.0000000000E+00 -1.7704681868E+00  1.1659361437E+00
           xangst3   0.0000000000E+00  0.0000000000E+00  0.0000000000E+00
                     0.0000000000E+00  1.5699100247E+00  0.0000000000E+00
                     0.0000000000E+00 -1.5699100247E+00  0.0000000000E+00
                     2.1198838976E+00  0.0000000000E+00  0.0000000000E+00
                    -2.1198838976E+00  0.0000000000E+00  0.0000000000E+00
           xangst4   0.0000000000E+00  0.0000000000E+00  0.0000000000E+00
                     0.0000000000E+00  1.2463181617E+00  9.5463568430E-01
                     0.0000000000E+00 -1.2463181617E+00  9.5463568430E-01
                     1.7704681868E+00  0.0000000000E+00  1.1659361437E+00
                    -1.7704681868E+00  0.0000000000E+00  1.1659361437E+00
            xcart1   0.0000000000E+00  0.0000000000E+00  0.0000000000E+00
                     0.0000000000E+00  2.3552000000E+00  1.8040000000E+00
                     0.0000000000E+00 -2.3552000000E+00  1.8040000000E+00
                     3.3457000000E+00  0.0000000000E+00 -2.2033000000E+00
                    -3.3457000000E+00  0.0000000000E+00 -2.2033000000E+00
            xcart2   0.0000000000E+00  0.0000000000E+00  0.0000000000E+00
                     0.0000000000E+00  2.3552000000E+00  1.8040000000E+00
                    -2.3552000000E+00  0.0000000000E+00 -1.8040000000E+00
                     3.3457000000E+00  0.0000000000E+00 -2.2033000000E+00
                     0.0000000000E+00 -3.3457000000E+00  2.2033000000E+00
            xcart3   0.0000000000E+00  0.0000000000E+00  0.0000000000E+00
                     0.0000000000E+00  2.9667000000E+00  0.0000000000E+00
                     0.0000000000E+00 -2.9667000000E+00  0.0000000000E+00
                     4.0060000000E+00  0.0000000000E+00  0.0000000000E+00
                    -4.0060000000E+00  0.0000000000E+00  0.0000000000E+00
            xcart4   0.0000000000E+00  0.0000000000E+00  0.0000000000E+00
                     0.0000000000E+00  2.3552000000E+00  1.8040000000E+00
                     0.0000000000E+00 -2.3552000000E+00  1.8040000000E+00
                     3.3457000000E+00  0.0000000000E+00  2.2033000000E+00
                    -3.3457000000E+00  0.0000000000E+00  2.2033000000E+00
             xred1   0.0000000000E+00  0.0000000000E+00  0.0000000000E+00
                     0.0000000000E+00  1.6822857143E-01  1.2885714286E-01
                     0.0000000000E+00 -1.6822857143E-01  1.2885714286E-01
                     2.3897857143E-01  0.0000000000E+00 -1.5737857143E-01
                    -2.3897857143E-01  0.0000000000E+00 -1.5737857143E-01
             xred2   0.0000000000E+00  0.0000000000E+00  0.0000000000E+00
                     0.0000000000E+00  1.6822857143E-01  1.2885714286E-01
                    -1.6822857143E-01  0.0000000000E+00 -1.2885714286E-01
                     2.3897857143E-01  0.0000000000E+00 -1.5737857143E-01
                     0.0000000000E+00 -2.3897857143E-01  1.5737857143E-01
             xred3   0.0000000000E+00  0.0000000000E+00  0.0000000000E+00
                     0.0000000000E+00  2.1190714286E-01  0.0000000000E+00
                     0.0000000000E+00 -2.1190714286E-01  0.0000000000E+00
                     2.8614285714E-01  0.0000000000E+00  0.0000000000E+00
                    -2.8614285714E-01  0.0000000000E+00  0.0000000000E+00
             xred4   0.0000000000E+00  0.0000000000E+00  0.0000000000E+00
                     0.0000000000E+00  1.6822857143E-01  1.2885714286E-01
                     0.0000000000E+00 -1.6822857143E-01  1.2885714286E-01
                     2.3897857143E-01  0.0000000000E+00  1.5737857143E-01
                    -2.3897857143E-01  0.0000000000E+00  1.5737857143E-01
            znucl     24.00000    8.00000   17.00000

- Timing analysis has been suppressed with timopt=0

 Suggested references for the acknowledgment of ABINIT usage.

 [1] ABINIT : First-principles approach of materials and nanosystem properties.
 X. Gonze, B. Amadon, P.-M. Anglade, J.-M. Beuken, F. Bottin, P. Boulanger, F. Bruneval,
 D. Caliste, R. Caracas, M. Cote, T. Deutsch, L. Genovese, Ph. Ghosez, M. Giantomassi
 S. Goedecker, D.R. Hamann, P. Hermet, F. Jollet, G. Jomard, S. Leroux, M. Mancini, S. Mazevet,
 M.J.T. Oliveira, G. Onida, Y. Pouillon, T. Rangel, G.-M. Rignanese, D. Sangalli, R. Shaltaf,
 M. Torrent, M.J. Verstraete, G. Zerah, J.W. Zwanziger
 Computer Phys. Comm. 180, 2582-2615 (2009).
 Comment : the third generic paper describing the ABINIT project.
 Note that a version of this paper, that is not formatted for Computer Phys. Comm.
 The licence allows the authors to put it on the Web.

 [2] A brief introduction to the ABINIT software package.
 X. Gonze, G.-M. Rignanese, M. Verstraete, J.-M. Beuken, Y. Pouillon, R. Caracas, F. Jollet,
 M. Torrent, G. Zerah, M. Mikami, Ph. Ghosez, M. Veithen, J.-Y. Raty, V. Olevano, F. Bruneval,
 L. Reining, R. Godby, G. Onida, D.R. Hamann, and D.C. Allan.
 Z. Kristallogr. 220, 558-562 (2005).
 Comment : the second generic paper describing the ABINIT project. Note that this paper
 should be cited especially if you are using the GW part of ABINIT, as several authors
 of this part are not in the list of authors of the first or third paper.
 Note that it should not redistributed (Copyright by Oldenburg Wissenshaftverlag,
 the licence allows the authors to put it on the Web).

 And optionally :

 [3] First-principles computation of material properties : the ABINIT software project.
 X. Gonze, J.-M. Beuken, R. Caracas, F. Detraux, M. Fuchs, G.-M. Rignanese, L. Sindic,
 M. Verstraete, G. Zerah, F. Jollet, M. Torrent, A. Roy, M. Mikami, Ph. Ghosez, J.-Y. Raty, D.C. Allan.
 Comment : the original paper describing the ABINIT project.

 [4] Fast radix 2, 3, 4 and 5 kernels for Fast Fourier Transformations
 on computers with overlapping multiply-add instructions.
 S. Goedecker, SIAM J. on Scientific Computing 18, 1605 (1997).
-

 Calculation completed.
.Delivered    1 WARNINGs and  11 COMMENTs to log file.