.Version 8.8.4 of ABINIT

 ABINIT is a project of the Universite Catholique de Louvain,
 Corning Inc. and other collaborators, see ~abinit/doc/developers/contributors.txt .
 Please read ~abinit/doc/users/acknowledgments.html for suggested
 acknowledgments of the ABINIT effort.

.Starting date : Tue  9 Oct 2018.
- ( at 11h19 )

- input  file    -> pd.in
- output file    -> pd.txt
- root for input  files -> pdi
- root for output files -> pdo

- inpspheads : Reading pseudopotential header in XML form from ./Pd.GGA_PBE-JTH.xml

 Symmetries : space group P-1 (#  2); Bravais aP (primitive triclinic)
     intxc =       0    ionmov =       0      iscf =      17    lmnmax =      18
     lnmax =       6     mgfft =     180  mpssoang =       3    mqgrid =    9802
     natom =       5  nloc_mem =       2    nspden =       1   nspinor =       1
    nsppol =       1      nsym =       2    n1xccc =       1    ntypat =       1
    occopt =       7   xclevel =       2
-    mband =          48        mffmem =           1         mkmem =          25
       mpw =        6541          nfft =      131220          nkpt =          25
 PAW method is used; the additional fine FFT grid is defined by:
   mgfftf=       200    nfftf =    180000
  Rough estimation (10% accuracy) of disk space for files :

------------- Echo of variables that govern the present computation ------------
-
- outvars: echo of selected default values
-   iomode0 =  0 , fftalg0 =112 , wfoptalg0 = 10
-
- outvars: echo of global parameters not present in the input file
-  max_nthreads =    1
-
 -outvars: echo values of preprocessed input variables --------
            acell      1.8897261329E+00  1.8897261329E+00  1.8897261329E+00 Bohr
              amu      1.06420000E+02
          chkexit           1
             ecut      3.00000031E+01 Hartree
-          fftalg         112
           getwfk          -1
           istwfk        2    0    0    0    0    0    0    0    0    0
                         0    0    0    0    0    0    0    0    0    0
                         0    0    0    0    0
              ixc          11
              kpt      0.00000000E+00  0.00000000E+00  0.00000000E+00
                       1.42857143E-01  0.00000000E+00  0.00000000E+00
                       2.85714286E-01  0.00000000E+00  0.00000000E+00
                       4.28571429E-01  0.00000000E+00  0.00000000E+00
                       0.00000000E+00  1.42857143E-01  0.00000000E+00
                       1.42857143E-01  1.42857143E-01  0.00000000E+00
                       2.85714286E-01  1.42857143E-01  0.00000000E+00
                       4.28571429E-01  1.42857143E-01  0.00000000E+00
                      -4.28571429E-01  1.42857143E-01  0.00000000E+00
                      -2.85714286E-01  1.42857143E-01  0.00000000E+00
                      -1.42857143E-01  1.42857143E-01  0.00000000E+00
                       0.00000000E+00  2.85714286E-01  0.00000000E+00
                       1.42857143E-01  2.85714286E-01  0.00000000E+00
                       2.85714286E-01  2.85714286E-01  0.00000000E+00
                       4.28571429E-01  2.85714286E-01  0.00000000E+00
                      -4.28571429E-01  2.85714286E-01  0.00000000E+00
                      -2.85714286E-01  2.85714286E-01  0.00000000E+00
                      -1.42857143E-01  2.85714286E-01  0.00000000E+00
                       0.00000000E+00  4.28571429E-01  0.00000000E+00
                       1.42857143E-01  4.28571429E-01  0.00000000E+00
                       2.85714286E-01  4.28571429E-01  0.00000000E+00
                       4.28571429E-01  4.28571429E-01  0.00000000E+00
                      -4.28571429E-01  4.28571429E-01  0.00000000E+00
                      -2.85714286E-01  4.28571429E-01  0.00000000E+00
                      -1.42857143E-01  4.28571429E-01  0.00000000E+00
         kptrlatt        7    0    0      0    7    0      0    0    1
          kptrlen      3.68931233E+01
P           mkmem          25
            natom           5
            nband          48
            ngfft          27      27     180
          ngfftdg          30      30     200
             nkpt          25
            nstep         200
             nsym           2
           ntypat           1
              occ      2.000000  2.000000  2.000000  2.000000  2.000000  2.000000
                       2.000000  2.000000  2.000000  2.000000  2.000000  2.000000
                       2.000000  2.000000  2.000000  2.000000  2.000000  2.000000
                       2.000000  2.000000  2.000000  2.000000  2.000000  2.000000
                       2.000000  2.000000  2.000000  2.000000  2.000000  2.000000
                       2.000000  2.000000  2.000000  2.000000  2.000000  2.000000
                       2.000000  2.000000  2.000000  2.000000  2.000000  2.000000
                       2.000000  2.000000  2.000000  0.000000  0.000000  0.000000
                       2.000000  2.000000  2.000000  2.000000  2.000000  2.000000
                       2.000000  2.000000  2.000000  2.000000  2.000000  2.000000
                       2.000000  2.000000  2.000000  2.000000  2.000000  2.000000
                       2.000000  2.000000  2.000000  2.000000  2.000000  2.000000
                       2.000000  2.000000  2.000000  2.000000  2.000000  2.000000
                       2.000000  2.000000  2.000000  2.000000  2.000000  2.000000
                       2.000000  2.000000  2.000000  2.000000  2.000000  2.000000
                       2.000000  2.000000  2.000000  0.000000  0.000000  0.000000
                       2.000000  2.000000  2.000000  2.000000  2.000000  2.000000
                       2.000000  2.000000  2.000000  2.000000  2.000000  2.000000
                       2.000000  2.000000  2.000000  2.000000  2.000000  2.000000
                       2.000000  2.000000  2.000000  2.000000  2.000000  2.000000
                       2.000000  2.000000  2.000000  2.000000  2.000000  2.000000
                       2.000000  2.000000  2.000000  2.000000  2.000000  2.000000
                       2.000000  2.000000  2.000000  2.000000  2.000000  2.000000
                       2.000000  2.000000  2.000000  0.000000  0.000000  0.000000
                       2.000000  2.000000  2.000000  2.000000  2.000000  2.000000
                       2.000000  2.000000  2.000000  2.000000  2.000000  2.000000
                       2.000000  2.000000  2.000000  2.000000  2.000000  2.000000
                       2.000000  2.000000  2.000000  2.000000  2.000000  2.000000
                       2.000000  2.000000  2.000000  2.000000  2.000000  2.000000
                       2.000000  2.000000  2.000000  2.000000  2.000000  2.000000
                       2.000000  2.000000  2.000000  2.000000  2.000000  2.000000
                       2.000000  2.000000  2.000000  0.000000  0.000000  0.000000
                       2.000000  2.000000  2.000000  2.000000  2.000000  2.000000
                       2.000000  2.000000  2.000000  2.000000  2.000000  2.000000
                       2.000000  2.000000  2.000000  2.000000  2.000000  2.000000
                       2.000000  2.000000  2.000000  2.000000  2.000000  2.000000
                       2.000000  2.000000  2.000000  2.000000  2.000000  2.000000
                       2.000000  2.000000  2.000000  2.000000  2.000000  2.000000
                       2.000000  2.000000  2.000000  2.000000  2.000000  2.000000
                       2.000000  2.000000  2.000000  0.000000  0.000000  0.000000
                       2.000000  2.000000  2.000000  2.000000  2.000000  2.000000
                       2.000000  2.000000  2.000000  2.000000  2.000000  2.000000
                       2.000000  2.000000  2.000000  2.000000  2.000000  2.000000
                       2.000000  2.000000  2.000000  2.000000  2.000000  2.000000
                       2.000000  2.000000  2.000000  2.000000  2.000000  2.000000
                       2.000000  2.000000  2.000000  2.000000  2.000000  2.000000
                       2.000000  2.000000  2.000000  2.000000  2.000000  2.000000
                       2.000000  2.000000  2.000000  0.000000  0.000000  0.000000
                       2.000000  2.000000  2.000000  2.000000  2.000000  2.000000
                       2.000000  2.000000  2.000000  2.000000  2.000000  2.000000
                       2.000000  2.000000  2.000000  2.000000  2.000000  2.000000
                       2.000000  2.000000  2.000000  2.000000  2.000000  2.000000
                       2.000000  2.000000  2.000000  2.000000  2.000000  2.000000
                       2.000000  2.000000  2.000000  2.000000  2.000000  2.000000
                       2.000000  2.000000  2.000000  2.000000  2.000000  2.000000
                       2.000000  2.000000  2.000000  0.000000  0.000000  0.000000
                       2.000000  2.000000  2.000000  2.000000  2.000000  2.000000
                       2.000000  2.000000  2.000000  2.000000  2.000000  2.000000
                       2.000000  2.000000  2.000000  2.000000  2.000000  2.000000
                       2.000000  2.000000  2.000000  2.000000  2.000000  2.000000
                       2.000000  2.000000  2.000000  2.000000  2.000000  2.000000
[...]
                       2.000000  2.000000  2.000000  2.000000  2.000000  2.000000
                       2.000000  2.000000  2.000000  2.000000  2.000000  2.000000
                       2.000000  2.000000  2.000000  2.000000  2.000000  2.000000
                       2.000000  2.000000  2.000000  2.000000  2.000000  2.000000
                       2.000000  2.000000  2.000000  2.000000  2.000000  2.000000
                       2.000000  2.000000  2.000000  2.000000  2.000000  2.000000
                       2.000000  2.000000  2.000000  0.000000  0.000000  0.000000
                       2.000000  2.000000  2.000000  2.000000  2.000000  2.000000
                       2.000000  2.000000  2.000000  2.000000  2.000000  2.000000
                       2.000000  2.000000  2.000000  2.000000  2.000000  2.000000
                       2.000000  2.000000  2.000000  2.000000  2.000000  2.000000
                       2.000000  2.000000  2.000000  2.000000  2.000000  2.000000
                       2.000000  2.000000  2.000000  2.000000  2.000000  2.000000
                       2.000000  2.000000  2.000000  2.000000  2.000000  2.000000
                       2.000000  2.000000  2.000000  0.000000  0.000000  0.000000
           occopt           7
        pawecutdg      3.99999870E+01 Hartree
            rprim      2.7890000000E+00  0.0000000000E+00  0.0000000000E+00
                       1.3945000000E+00  2.4153448512E+00  0.0000000000E+00
                       0.0000000000E+00  0.0000000000E+00  1.8217671714E+01
          spgroup           2
           symrel      1  0  0   0  1  0   0  0  1      -1  0  0   0 -1  0   0  0 -1
            tnons      0.0000000  0.0000000  0.0000000     0.3333333  0.3333333 -0.2500000
           toldfe      3.67493254E-08 Hartree
           tsmear      7.34986508E-04 Hartree
            typat      1  1  1  1  1
           useylm           1
[...]
    1       0.000118085976      0.000925766306     -0.002353552382
    2      -0.000006513874     -0.000051419534     -0.006278509229
    3       0.000000000000      0.000000000000      0.000000000000
    4       0.000006513874      0.000051419534      0.006278509229
    5      -0.000118085976     -0.000925766306      0.002353552382

 cartesian coordinates (angstrom) at end:
    1      0.00001394500000    -0.00002415344851     2.28676407836823
    2      1.39450000000000     0.80511495038493     4.57003462670261
    3      2.78900000000000     1.61022990076986     6.83162689262228
    4      4.18350000000000     2.41534485115480     9.09321915854196
    5      5.57798605500000     3.22048395498824    11.37648970687634

 cartesian forces (hartree/bohr) at end:
    1     -0.00002240530921    -0.00018989016232     0.00006836473394
    2      0.00000123592460     0.00001055192953     0.00018237478643
    3      0.00000000000000     0.00000000000000    -0.00000000000000
    4     -0.00000123592460    -0.00001055192953    -0.00018237478643
    5      0.00002240530921     0.00018989016232    -0.00006836473394
 frms,max,avg= 9.9737951E-05 1.8989016E-04   0.000E+00  0.000E+00  0.000E+00 h/b

 cartesian forces (eV/Angstrom) at end:
    1     -0.00115212722603    -0.00976454392657     0.00351545566879
    2      0.00006355379312     0.00054260198710     0.00937808779223
    3      0.00000000000000     0.00000000000000    -0.00000000000000
    4     -0.00006355379312    -0.00054260198710    -0.00937808779223
    5      0.00115212722603     0.00976454392657    -0.00351545566879
 frms,max,avg= 5.1287312E-03 9.7645439E-03   0.000E+00  0.000E+00  0.000E+00 e/A
 length scales=  1.889726132886  1.889726132886  1.889726132886 bohr
              =  1.000000000000  1.000000000000  1.000000000000 angstroms
 prteigrs : about to open file pdo_EIG
 Fermi (or HOMO) energy (hartree) =   0.18173   Average Vxc (hartree)=  -0.31484
 Eigenvalues (hartree) for nkpt=  25  k points:
 kpt#   1, nband= 48, wtk=  0.02041, kpt=  0.0000  0.0000  0.0000 (reduced coord)
  -2.90769   -2.90514   -2.90498   -2.89372   -2.89372   -1.65242   -1.64642   -1.64271
  -1.64262   -1.64248   -1.64031   -1.64010   -1.64009   -1.63989   -1.63311   -1.63311
  -1.63288   -1.63288   -1.62599   -1.62596   -0.06154   -0.03098   -0.00515    0.00413
   0.00776    0.08133    0.08348    0.08369    0.08371    0.08605    0.08614    0.09106
   0.09107    0.09766    0.09768    0.09824    0.09857    0.09858    0.13823    0.13830
   0.14213    0.14255    0.14267    0.15456    0.15473    0.17014    0.17033    0.17913
      occupation numbers for kpt#   1
   2.00000    2.00000    2.00000    2.00000    2.00000    2.00000    2.00000    2.00000
   2.00000    2.00000    2.00000    2.00000    2.00000    2.00000    2.00000    2.00000
   2.00000    2.00000    2.00000    2.00000    2.00000    2.00000    2.00000    2.00000
   2.00000    2.00000    2.00000    2.00000    2.00000    2.00000    2.00000    2.00000
   2.00000    2.00000    2.00000    2.00000    2.00000    2.00000    2.00000    2.00000
   2.00000    2.00000    2.00000    2.00000    2.00000    2.00000    2.00000    2.00000
 prteigrs : prtvol=0 or 1, do not print more k-points.

 Components of total free energy (in Hartree) :

    Kinetic energy  =  6.59677331262303E+01
    Hartree energy  =  9.60045538323656E+02
    XC energy       = -2.10293391144925E+01
    Ewald energy    =  4.20990769256001E+02
    PspCore energy  =  2.49569872558701E+01
    Loc. psp. energy= -2.04405980213208E+03
    Spherical terms = -5.09292743331336E+01
    >>>>> Internal E= -6.44057387617954E+02

    -kT*entropy     = -5.36131553684542E-05
    >>>>>>>>> Etotal= -6.44057441231109E+02

 "Double-counting" decomposition of free energy:
    Band energy     = -7.33855137547343E+01
    Ewald energy    =  4.20990769256001E+02
    PspCore energy  =  2.49569872558701E+01
    Dble-C XC-energy= -9.56744903957382E+02
    Spherical terms = -5.98747348753588E+01
    >>>>> Internal E= -6.44057396075604E+02

    -kT*entropy     = -5.36131553684542E-05
    >>>> Etotal (DC)= -6.44057449688759E+02

  >Total energy in eV           = -1.75256942612291E+04
  >Total DC energy in eV        = -1.75256944913735E+04

 Cartesian components of stress tensor (hartree/bohr^3)
  sigma(1 1)=  9.04408350E-05  sigma(3 2)= -3.82804100E-06
  sigma(2 2)=  9.34937495E-05  sigma(3 1)= -4.46029447E-07
  sigma(3 3)=  5.31724106E-06  sigma(2 1)= -1.78516555E-07

-Cartesian components of stress tensor (GPa)         [Pressure= -1.8560E+00 GPa]
- sigma(1 1)=  2.66086078E+00  sigma(3 2)= -1.12624836E-01
- sigma(2 2)=  2.75068061E+00  sigma(3 1)= -1.31226372E-02
- sigma(3 3)=  1.56438607E-01  sigma(2 1)= -5.25213750E-03

== END DATASET(S) ==============================================================

 -outvars: echo values of variables after computation  --------
            acell      1.8897261329E+00  1.8897261329E+00  1.8897261329E+00 Bohr
              amu      1.06420000E+02
          chkexit           1
             ecut      3.00000031E+01 Hartree
           etotal     -6.4405744969E+02
            fcart     -2.2405309210E-05 -1.8989016232E-04  6.8364733940E-05
                       1.2359246047E-06  1.0551929530E-05  1.8237478643E-04
                       0.0000000000E+00  0.0000000000E+00 -2.7105054312E-21
                      -1.2359246047E-06 -1.0551929530E-05 -1.8237478643E-04
                       2.2405309210E-05  1.8989016232E-04 -6.8364733940E-05
-          fftalg         112
           getwfk          -1
           istwfk        2    0    0    0    0    0    0    0    0    0
                         0    0    0    0    0    0    0    0    0    0
                         0    0    0    0    0
              ixc          11
              kpt      0.00000000E+00  0.00000000E+00  0.00000000E+00
                       1.42857143E-01  0.00000000E+00  0.00000000E+00
                       2.85714286E-01  0.00000000E+00  0.00000000E+00
                       4.28571429E-01  0.00000000E+00  0.00000000E+00
                       0.00000000E+00  1.42857143E-01  0.00000000E+00
                       1.42857143E-01  1.42857143E-01  0.00000000E+00
                       2.85714286E-01  1.42857143E-01  0.00000000E+00
                       4.28571429E-01  1.42857143E-01  0.00000000E+00
                      -4.28571429E-01  1.42857143E-01  0.00000000E+00
                      -2.85714286E-01  1.42857143E-01  0.00000000E+00
                      -1.42857143E-01  1.42857143E-01  0.00000000E+00
                       0.00000000E+00  2.85714286E-01  0.00000000E+00
                       1.42857143E-01  2.85714286E-01  0.00000000E+00
                       2.85714286E-01  2.85714286E-01  0.00000000E+00
                       4.28571429E-01  2.85714286E-01  0.00000000E+00
                      -4.28571429E-01  2.85714286E-01  0.00000000E+00
                      -2.85714286E-01  2.85714286E-01  0.00000000E+00
                      -1.42857143E-01  2.85714286E-01  0.00000000E+00
                       0.00000000E+00  4.28571429E-01  0.00000000E+00
                       1.42857143E-01  4.28571429E-01  0.00000000E+00
                       2.85714286E-01  4.28571429E-01  0.00000000E+00
                       4.28571429E-01  4.28571429E-01  0.00000000E+00
                      -4.28571429E-01  4.28571429E-01  0.00000000E+00
                      -2.85714286E-01  4.28571429E-01  0.00000000E+00
                      -1.42857143E-01  4.28571429E-01  0.00000000E+00
         kptrlatt        7    0    0      0    7    0      0    0    1
          kptrlen      3.68931233E+01
P           mkmem          25
            natom           5
            nband          48
            ngfft          27      27     180
          ngfftdg          30      30     200
             nkpt          25
            nstep         200
             nsym           2
           ntypat           1
              occ      2.000000  2.000000  2.000000  2.000000  2.000000  2.000000
                       2.000000  2.000000  2.000000  2.000000  2.000000  2.000000
                       2.000000  2.000000  2.000000  2.000000  2.000000  2.000000
                       2.000000  2.000000  2.000000  2.000000  2.000000  2.000000
                       2.000000  2.000000  2.000000  2.000000  2.000000  2.000000
                       2.000000  2.000000  2.000000  2.000000  2.000000  2.000000
                       2.000000  2.000000  2.000000  2.000000  2.000000  2.000000
                       2.000000  2.000000  2.000000  2.000000  2.000000  1.999999
                       2.000000  2.000000  2.000000  2.000000  2.000000  2.000000
                       2.000000  2.000000  2.000000  2.000000  2.000000  2.000000
                       2.000000  2.000000  2.000000  2.000000  2.000000  2.000000
                       2.000000  2.000000  2.000000  2.000000  2.000000  2.000000
                       2.000000  2.000000  2.000000  2.000000  2.000000  2.000000
                       2.000000  2.000000  2.000000  2.000000  2.000000  2.000000
                       2.000000  2.000000  2.000000  2.000000  2.000000  2.000000
                       2.000000  2.000000  2.000000  2.000000  2.000000  1.999274
                       2.000000  2.000000  2.000000  2.000000  2.000000  2.000000
                       2.000000  2.000000  2.000000  2.000000  2.000000  2.000000
                       2.000000  2.000000  2.000000  2.000000  2.000000  2.000000
                       2.000000  2.000000  2.000000  2.000000  2.000000  2.000000
                       2.000000  2.000000  2.000000  2.000000  2.000000  2.000000
                       2.000000  2.000000  2.000000  2.000000  2.000000  2.000000
                       2.000000  2.000000  2.000000  2.000000  2.000000  2.000000
                       2.000000  2.000000  2.000000  2.000000  1.042425  0.000000
                       2.000000  2.000000  2.000000  2.000000  2.000000  2.000000
                       2.000000  2.000000  2.000000  2.000000  2.000000  2.000000
                       2.000000  2.000000  2.000000  2.000000  2.000000  2.000000
                       2.000000  2.000000  2.000000  2.000000  2.000000  2.000000
                       2.000000  2.000000  2.000000  2.000000  2.000000  2.000000
                       2.000000  2.000000  2.000000  2.000000  2.000000  2.000000
                       2.000000  2.000000  2.000000  2.000000  2.000000  1.999957
                       0.016950  0.000000  0.000000  0.000000  0.000000  0.000000
                       2.000000  2.000000  2.000000  2.000000  2.000000  2.000000
                       2.000000  2.000000  2.000000  2.000000  2.000000  2.000000
                       2.000000  2.000000  2.000000  2.000000  2.000000  2.000000
                       2.000000  2.000000  2.000000  2.000000  2.000000  2.000000
                       2.000000  2.000000  2.000000  2.000000  2.000000  2.000000
                       2.000000  2.000000  2.000000  2.000000  2.000000  2.000000
                       2.000000  2.000000  2.000000  2.000000  2.000000  2.000000
                       2.000000  2.000000  2.000000  2.000000  2.000000  1.998217
                       2.000000  2.000000  2.000000  2.000000  2.000000  2.000000
                       2.000000  2.000000  2.000000  2.000000  2.000000  2.000000
                       2.000000  2.000000  2.000000  2.000000  2.000000  2.000000
                       2.000000  2.000000  2.000000  2.000000  2.000000  2.000000
                       2.000000  2.000000  2.000000  2.000000  2.000000  2.000000
                       2.000000  2.000000  2.000000  2.000000  2.000000  2.000000
                       2.000000  2.000000  2.000000  2.000000  2.000000  2.000000
                       2.000000  2.000000  2.000000  2.000000  2.000000  1.999367
                       2.000000  2.000000  2.000000  2.000000  2.000000  2.000000
                       2.000000  2.000000  2.000000  2.000000  2.000000  2.000000
                       2.000000  2.000000  2.000000  2.000000  2.000000  2.000000
                       2.000000  2.000000  2.000000  2.000000  2.000000  2.000000
                       2.000000  2.000000  2.000000  2.000000  2.000000  2.000000
                       2.000000  2.000000  2.000000  2.000000  2.000000  2.000000
                       2.000000  2.000000  2.000000  2.000000  2.000000  2.000000
                       2.000000  2.000000  2.000000  2.000000  2.000000  0.000000
                       2.000000  2.000000  2.000000  2.000000  2.000000  2.000000
                       2.000000  2.000000  2.000000  2.000000  2.000000  2.000000
                       2.000000  2.000000  2.000000  2.000000  2.000000  2.000000
                       2.000000  2.000000  2.000000  2.000000  2.000000  2.000000
                       2.000000  2.000000  2.000000  2.000000  2.000000  2.000000
[...]
                       2.000000  2.000000  2.000000  2.000000  2.000000  2.000000
                       2.000000  2.000000  2.000000  2.000000  2.000000  2.000000
                       2.000000  2.000000  2.000000  2.000000  2.000000  2.000000
                       2.000000  2.000000  2.000000  2.000000  2.000000  2.000000
                       2.000000  2.000000  2.000000  2.000000  2.000000  2.000000
                       2.000000  2.000000  2.000000  2.000000  2.000000  2.000000
                       2.000000  2.000000  0.000154  0.000000  0.000000  0.000000
                       2.000000  2.000000  2.000000  2.000000  2.000000  2.000000
                       2.000000  2.000000  2.000000  2.000000  2.000000  2.000000
                       2.000000  2.000000  2.000000  2.000000  2.000000  2.000000
                       2.000000  2.000000  2.000000  2.000000  2.000000  2.000000
                       2.000000  2.000000  2.000000  2.000000  2.000000  2.000000
                       2.000000  2.000000  2.000000  2.000000  2.000000  2.000000
                       2.000000  2.000000  2.000000  2.000000  2.000000  2.000000
                       2.000000  1.999414  0.000000  0.000000  0.000000  0.000000
           occopt           7
        pawecutdg      3.99999870E+01 Hartree
            rprim      2.7890000000E+00  0.0000000000E+00  0.0000000000E+00
                       1.3945000000E+00  2.4153448512E+00  0.0000000000E+00
                       0.0000000000E+00  0.0000000000E+00  1.8217671714E+01
          spgroup           2
           strten      9.0440834956E-05  9.3493749484E-05  5.3172410577E-06
                      -3.8280410029E-06 -4.4602944655E-07 -1.7851655506E-07
           symrel      1  0  0   0  1  0   0  0  1      -1  0  0   0 -1  0   0  0 -1
            tnons      0.0000000  0.0000000  0.0000000     0.3333333  0.3333333 -0.2500000
           toldfe      3.67493254E-08 Hartree
           tsmear      7.34986508E-04 Hartree
            typat      1  1  1  1  1
           useylm           1
              wtk        0.02041    0.04082    0.04082    0.04082    0.04082    0.04082
                         0.04082    0.04082    0.04082    0.04082    0.04082    0.04082
                         0.04082    0.04082    0.04082    0.04082    0.04082    0.04082
                         0.04082    0.04082    0.04082    0.04082    0.04082    0.04082
                         0.04082
           xangst      1.3945000000E-05 -2.4153448510E-05  2.2867640784E+00
                       1.3945000000E+00  8.0511495038E-01  4.5700346267E+00
                       2.7890000000E+00  1.6102299008E+00  6.8316268926E+00
                       4.1835000000E+00  2.4153448512E+00  9.0932191585E+00
                       5.5779860550E+00  3.2204839550E+00  1.1376489707E+01
            xcart      2.6352230923E-05 -4.5643402849E-05  4.3213578386E+00
                       2.6352230923E+00  1.5214467617E+00  8.6361138623E+00
                       5.2704461846E+00  3.0428935234E+00  1.2909903869E+01
                       7.9056692769E+00  4.5643402852E+00  1.7183693876E+01
                       1.0540866017E+01  6.0858326903E+00  2.1498449900E+01
             xred      9.9999999997E-06 -9.9999999994E-06  1.2552449700E-01
                       3.3333333333E-01  3.3333333333E-01  2.5085722800E-01
                       6.6666666667E-01  6.6666666667E-01  3.7500000000E-01
                       1.0000000000E+00  1.0000000000E+00  4.9914277200E-01
                       1.3333233333E+00  1.3333433333E+00  6.2447550300E-01
            znucl       46.00000

- Timing analysis has been suppressed with timopt=0

 Suggested references for the acknowledgment of ABINIT usage.

 Calculation completed.
.Delivered  30 WARNINGs and   3 COMMENTs to log file.