.Version 7.6.2 of ABINIT

 ABINIT is a project of the Universite Catholique de Louvain,
 Corning Inc. and other collaborators, see ~abinit/doc/developers/contributors.txt .
 Please read ~abinit/doc/users/acknowledgments.html for suggested
 acknowledgments of the ABINIT effort.

.Starting date : Sat 29 Mar 2014.
- ( at 14h48 )

 === Build Information ===
  Version       : 7.6.2
  Build target  : x86_64_linux_intel13.1
  Build date    : 20140325

 === Optimizations ===
  Debug level        : basic
  Optimization level : standard
  Architecture       : intel_xeon

 === Multicore ===
  Parallel build : yes
  Parallel I/O   : yes
  Time tracing   : no
  openMP support : no
  GPU support    : no

 === Connectors / Fallbacks ===
  Connectors on : yes
  Fallbacks on  : yes
  FFT flavor    : fftw3
  LINALG flavor : mkl
  MATH flavor   : none
  TIMER flavor  : abinit
  TRIO flavor   : netcdf-fallback+etsf_io-fallback+fox-fallback

 === Experimental features ===
  Bindings            : no
  Exports             : no
  GW double-precision : yes

 Default optimizations:
   --- None ---

 CPP options activated during the build:

                  CC_INTEL                   CXX_GNU                  FC_INTEL

        HAVE_DFT_WANNIER90 HAVE_FC_ALLOCATABLE_DT...  HAVE_FC_COMMAND_ARGUMENT

        HAVE_FC_CONTIGUOUS           HAVE_FC_CPUTIME             HAVE_FC_ETIME

              HAVE_FC_EXIT             HAVE_FC_FLUSH             HAVE_FC_GAMMA

            HAVE_FC_GETENV            HAVE_FC_GETPID             HAVE_FC_IOMSG

     HAVE_FC_ISO_C_BINDING        HAVE_FC_LONG_LINES              HAVE_FC_NULL

         HAVE_FC_STREAM_IO            HAVE_FC_SYSTEM                  HAVE_FFT

            HAVE_FFT_FFTW3              HAVE_FFT_MPI           HAVE_FFT_SERIAL

               HAVE_GW_DPC        HAVE_LIBPAW_ABINIT               HAVE_LINALG

         HAVE_LINALG_AXPBY        HAVE_LINALG_GEMM3M  HAVE_LINALG_MKL_IMATCOPY

   HAVE_LINALG_MKL_OMATADD  HAVE_LINALG_MKL_OMATCOPY        HAVE_LINALG_SERIAL

                  HAVE_MPI                 HAVE_MPI2               HAVE_MPI_IO

 HAVE_MPI_TYPE_CREATE_S...                HAVE_NUMPY             HAVE_OS_LINUX

                HAVE_TIMER         HAVE_TIMER_ABINIT            HAVE_TIMER_MPI

         HAVE_TIMER_SERIAL         HAVE_TRIO_ETSF_IO             HAVE_TRIO_FOX

          HAVE_TRIO_NETCDF              USE_MACROAVE

- input  file    -> /home/weitong/setup/abinit/AbinitGUI/MySims/tets1_1_parallel/input/test1.in
- output file    -> /home/weitong/setup/abinit/AbinitGUI/MySims/tets1_1_parallel/output/test1.out
- root for input  files -> /home/weitong/setup/abinit/AbinitGUI/MySims/tets1_1_parallel/wholedata/test1/test1i
- root for output files -> /home/weitong/setup/abinit/AbinitGUI/MySims/tets1_1_parallel/wholedata/test1/test1o

-instrng :    44 lines of input have been read from file /home/weitong/setup/abinit/AbinitGUI/MySims/tets1_1_parallel/input/test1.in

 iofn2 : Please give name of formatted atomic psp file
 iofn2 : for atom type   1 , psp file is /home/weitong/setup/abinit/AbinitGUI/MySims/tets1_1_parallel/pseudopot/41-Nb.LDA.fhi

 iofn2 : Please give name of formatted atomic psp file
 iofn2 : for atom type   2 , psp file is /home/weitong/setup/abinit/AbinitGUI/MySims/tets1_1_parallel/pseudopot/03-Li.LDA.fhi

 iofn2 : Please give name of formatted atomic psp file
 iofn2 : for atom type   3 , psp file is /home/weitong/setup/abinit/AbinitGUI/MySims/tets1_1_parallel/pseudopot/08-O.LDA.fhi
  read the values zionpsp=  5.0 , pspcod=   6 , lmax=   3
  read the values zionpsp=  1.0 , pspcod=   6 , lmax=   3
  read the values zionpsp=  6.0 , pspcod=   6 , lmax=   3

 inpspheads : deduce mpsang  =   4, n1xccc  =2501.

 invars1m : enter jdtset=0
 invars1 : treat image number     1
 ingeo : use angdeg to generate rprim.

 symlatt : the Bravais lattice is hR (rhombohedral)
  xred   is defined in input file
 ingeo : takes atomic coordinates from input array xred

 symlatt : the Bravais lattice is hR (rhombohedral)

 symlatt : the Bravais lattice is hR (rhombohedral)
 symspgr : spgroup= 161  R3 c   (=C3v^6)
 getkgrid : length of smallest supercell vector (bohr)=    1.946833E+01
       Simple Lattice Grid
 symkpt : found identity, with number  1
 getkgrid : length of smallest supercell vector (bohr)=    1.946833E+01
       Simple Lattice Grid
 symkpt : found identity, with number  1
  dtset%nelect=   48.0000000000000
 chkneu : initialized the occupation numbers for occopt=    1
    spin-unpolarized case :
  2.00  2.00  2.00  2.00  2.00  2.00  2.00  2.00  2.00  2.00  2.00  2.00
  2.00  2.00  2.00  2.00  2.00  2.00  2.00  2.00  2.00  2.00  2.00  2.00
  0.00  0.00  0.00  0.00  0.00  0.00  0.00  0.00  0.00  0.00  0.00  0.00
  0.00  0.00  0.00  0.00  0.00  0.00
 getmpw sequential formula gave:      775

 Computing all possible proc distrib for this input with nproc less than 8
     npimage|       npkpt|    npspinor|       npfft|      npband|     bandpp |       nproc|      weight|
   1 ->    1|   1 ->    2|   1 ->    1|   1 ->    8|   1 ->    8|   1 ->    4|   2 ->    8|   1 ->    8|
           1|           2|           1|           4|           1|           1|           8|       6.72 |
           1|           2|           1|           2|           2|           1|           8|       6.72 |
           1|           2|           1|           3|           1|           1|           6|       5.16 |
           1|           2|           1|           1|           3|           1|           6|       5.16 |
           1|           1|           1|           4|           2|           1|           8|       3.93 |
npfft, npband, npspinor and npkpt:     4    1    1    2
mpi_setup: mkmem  undefined in the input file.Use default mkmem  = nkpt
 mpi_setup: With nkpt_me=1 and mkmem  = 2, ground state wf handled in core.
mpi_setup: mkqmem undefined in the input file.Use default mkqmem = nkpt
 mpi_setup: With nkpt_me=1 and mkqmem = 2, ground state wf handled in core.
mpi_setup: mk1mem undefined in the input file.Use default mk1mem = nkpt
 mpi_setup: With nkpt_me=1 and mk1mem = 2, ground state wf handled in core.

--- !WARNING
message: |
    The second and third dimension of the FFT grid: 0, 0
src_file: getng.F90
src_line: 200
...

 For input ecut=  8.000000E+00 best grid ngfft=      30      32      32
       max ecut=  1.029956E+01
 However, must be changed due to symmetry =>      32      32      32
       with max ecut=  0.116990E+02

 ==== FFT mesh ====
  FFT mesh divisions ........................    32   32   32
  Augmented FFT divisions ...................    33   33   32
  FFT algorithm .............................   401
  FFT cache size ............................    16
 Relative gap for number of plane waves between process:     0.09
 Relative gap for number of plane waves between process:     0.04
 getmpw: optimal value of mpw=     206

 Symmetries : space group R3 c (#161); Bravais hR (rhombohedral)

 getdim_nloc : deduce lmnmax  =  16, lnmax  =   4,
                      lmnmaxso=  16, lnmaxso=   4.
   intxc =         0  ionmov =         0    iscf =         7 xclevel =         1
  lmnmax =         4   lnmax =         4   mband =        42  mffmem =         1
P  mgfft =        32   mkmem =         1 mpssoang=         4     mpw =       206
  mqgrid =      3001   natom =        10    nfft =      8192    nkpt =         2
  nloalg =         4  nspden =         1 nspinor =         1  nsppol =         1
    nsym =         6  n1xccc =      2501  ntypat =         3  occopt =         1
  Rough estimation (10% accuracy) of disk space for files :

 The job will continue.
------------- Echo of variables that govern the present computation ------------
-
- outvars: echo of selected default values
-   accesswff0 =  0 , fftalg0 =312 , wfoptalg0 =  0
-
- outvars: echo of global parameters not present in the input file
-  max_nthreads =    0
-
 -outvars: echo values of preprocessed input variables --------

 These variables are accessible in NetCDF format (
 /home/weitong/setup/abinit/AbinitGUI/MySims/tets1_1_parallel/wholedata/test1/te
 st1o_OUT.nc)

        accesswff           1
            acell      1.0391549200E+01  1.0391549200E+01  1.0391549200E+01 Bohr
              amu      9.29063800E+01  6.94100000E+00  1.59994000E+01
           diemac      1.00000000E+01
             ecut      8.00000000E+00 Hartree
           ecutsm      5.00000000E-01 Hartree
           fftalg         401
      fft_opt_lob           2
           iprcch           6
              ixc           7
              kpt      2.50000000E-01  2.50000000E-01  2.50000000E-01
                      -2.50000000E-01  2.50000000E-01  2.50000000E-01
         kptrlatt        2    0    0      0    2    0      0    0    2
          kptrlen      1.94683329E+01
P           mkmem           1
            natom          10
            nband          42
           nbdbuf           2
            ngfft          32      32      32
             nkpt           2
            npfft           4
-           npkpt           2
            nstep         100
             nsym           6
           ntypat           3
              occ      2.000000  2.000000  2.000000  2.000000  2.000000  2.000000
                       2.000000  2.000000  2.000000  2.000000  2.000000  2.000000
                       2.000000  2.000000  2.000000  2.000000  2.000000  2.000000
                       2.000000  2.000000  2.000000  2.000000  2.000000  2.000000
                       0.000000  0.000000  0.000000  0.000000  0.000000  0.000000
                       0.000000  0.000000  0.000000  0.000000  0.000000  0.000000
                       0.000000  0.000000  0.000000  0.000000  0.000000  0.000000
           ortalg          -2
        paral_kgb           1
            rprim      5.4082634987E-01  0.0000000000E+00  8.4113426947E-01
                      -2.7041317494E-01  4.6836935803E-01  8.4113426947E-01
                      -2.7041317494E-01 -4.6836935803E-01  8.4113426947E-01
           shiftk      5.00000000E-01  5.00000000E-01  5.00000000E-01
          spgroup         161
           symrel      1  0  0   0  1  0   0  0  1       0  1  0   1  0  0   0  0  1
                       0  0  1   1  0  0   0  1  0       1  0  0   0  0  1   0  1  0
                       0  1  0   0  0  1   1  0  0       0  0  1   0  1  0   1  0  0
            tnons      0.0000000  0.0000000  0.0000000     0.5000000  0.5000000  0.5000000
                       0.0000000  0.0000000  0.0000000     0.5000000  0.5000000  0.5000000
                       0.0000000  0.0000000  0.0000000     0.5000000  0.5000000  0.5000000
           toldfe      1.00000000E-12 Hartree
            typat      1  1  2  2  3  3  3  3  3  3
         wfoptalg          14
              wtk        0.25000    0.75000
           xangst      0.0000000000E+00  0.0000000000E+00  0.0000000000E+00
                       0.0000000000E+00  0.0000000000E+00  6.9380594306E+00
                       0.0000000000E+00  0.0000000000E+00  3.9255540258E+00
                       0.0000000000E+00  0.0000000000E+00  1.0863613456E+01
                      -1.5292397120E+00 -6.3683896031E-01  7.8279811869E+00
[...]
 initro : indeed, coreel=     36.0000, nval=  5 and densty=  0.0000E+00.
 initro : for itypat=  2, take decay length=      1.8000,
 initro : indeed, coreel=      2.0000, nval=  1 and densty=  0.0000E+00.
 initro : for itypat=  3, take decay length=      0.5000,
 initro : indeed, coreel=      2.0000, nval=  6 and densty=  0.0000E+00.

 getcut: wavevector=  0.0000  0.0000  0.0000  ngfft=  32  32  32
         ecut(hartree)=      8.000   => boxcut(ratio)=   2.41858

 getcut : COMMENT -
  Note that boxcut > 2.2 ; recall that boxcut=Gcut(box)/Gcut(sphere) = 2
  is sufficient for exact treatment of convolution.
  Such a large boxcut is a waste : you could raise ecut
  e.g. ecut=   11.699049 Hartrees makes boxcut=2

 ewald : nr and ng are    4 and   10

 ITER STEP NUMBER     1
 vtorho : nnsclo_now=  2, note that nnsclo,dbl_nnsclo,istep=  0 0  1
 Total charge density [el/Bohr^3]
,     Maximum=    4.2123E-01  at reduced coord.    0.3125    0.0938    0.0000
,     Minimum=    1.1352E-03  at reduced coord.    0.2813    0.2813    0.0313
,  Integrated=    4.8000E+01
 ETOT  1  -96.680943421047    -9.668E+01 4.956E-03 2.681E+03
 scprqt: <Vxc>= -4.1746799E-01 hartree

Simple mixing update:
  residual square of the potential :   1297.58529609108

[...]

 Pulay update with  1 previous iterations:
 mixing of old trial potential : alpha(m:m-4)=  0.528      0.472

[...]

 ITER STEP NUMBER    14
 vtorho : nnsclo_now=  1, note that nnsclo,dbl_nnsclo,istep=  0 0 14
 condition number of the Gram matrix=   119129.115788397
 Lobpcgwf: restart performed
 condition number of the Gram matrix=   1176412101447.57
 Lobpcgwf: restart performed
 condition number of the Gram matrix= -9.007199254740992E+015

--- !WARNING
message: |
    the minimization is stopped for this block
src_file: lobpcgwf.F90
src_line: 855
...

 condition number of the Gram matrix=   224989.452535864
 Lobpcgwf: restart performed
 condition number of the Gram matrix=   272520135385.926
 Lobpcgwf: restart performed
 condition number of the Gram matrix=  1.801439850948198E+016

[...]

 condition number of the Gram matrix=   174149.223411004
 Lobpcgwf: restart performed
 Total charge density [el/Bohr^3]
,     Maximum=    5.5019E-01  at reduced coord.    0.3125    0.0938    0.0313
,     Minimum=    5.2149E-04  at reduced coord.    0.0000    0.0000    0.0000
,  Integrated=    4.8000E+01
 ETOT 14  -100.16163623997     1.025E-06 9.659E-11 5.316E-10
 scprqt: <Vxc>= -3.9843500E-01 hartree

[...]

 ITER STEP NUMBER    16
 vtorho : nnsclo_now=  1, note that nnsclo,dbl_nnsclo,istep=  0 0 16
 condition number of the Gram matrix=   327894.991652557
 Lobpcgwf: restart performed
 condition number of the Gram matrix=   130673106912.843
 Lobpcgwf: restart performed
 condition number of the Gram matrix= -9.007199254740992E+015

[...]

 condition number of the Gram matrix=   121457.528276474
 Lobpcgwf: restart performed
 condition number of the Gram matrix=   2606626900517.30
 Lobpcgwf: restart performed
 condition number of the Gram matrix=                Infinity

[...]

 Total charge density [el/Bohr^3]
,     Maximum=    5.5019E-01  at reduced coord.    0.3125    0.0938    0.0313
,     Minimum=    5.2149E-04  at reduced coord.    0.0000    0.0000    0.0000
,  Integrated=    4.8000E+01
 ETOT 16  -100.16163565283     4.848E-06 3.790E-11 6.457E-11
 scprqt: <Vxc>= -3.9843501E-01 hartree

[...]

 ITER STEP NUMBER    17
 vtorho : nnsclo_now=  1, note that nnsclo,dbl_nnsclo,istep=  0 0 17
 Total charge density [el/Bohr^3]
,     Maximum=    5.5019E-01  at reduced coord.    0.3125    0.0938    0.0313
,     Minimum=    5.2149E-04  at reduced coord.    0.0000    0.0000    0.0000
,  Integrated=    4.8000E+01
 ETOT 17  -100.16163378424     1.869E-06 1.394E-13 1.971E-10
 scprqt: <Vxc>= -3.9843501E-01 hartree

[...]

 ITER STEP NUMBER    18
 vtorho : nnsclo_now=  1, note that nnsclo,dbl_nnsclo,istep=  0 0 18
 condition number of the Gram matrix=   1622581.63046691
 Lobpcgwf: restart performed
 condition number of the Gram matrix=   10002442259567.0
 Lobpcgwf: restart performed
 condition number of the Gram matrix=                Infinity

[...]

 condition number of the Gram matrix=   1823894.75580797
 Lobpcgwf: restart performed
 condition number of the Gram matrix=   109178172784738.
 Lobpcgwf: restart performed
 condition number of the Gram matrix=  4.503599627370496E+015

--- !WARNING
message: |
    the minimization is stopped for this block
src_file: lobpcgwf.F90
src_line: 855
...

 condition number of the Gram matrix=   2925540.62729501
 Lobpcgwf: restart performed
 condition number of the Gram matrix=  6.004799503160661E+015
 Lobpcgwf: restart performed

--- !WARNING
message: |
    abi_xpotrf, info=1
src_file: abi_xorthonormalize.f90
src_line: 115
...

--- !WARNING
message: |
    Problem in abi_xheev, info=   2
src_file: abi_xheev.f90
src_line: 184
...

--- !WARNING
message: |
    Problem in abi_xhegv, info=   6
src_file: abi_xhegv.f90
src_line: 187
...

[...]

--- !WARNING
message: |
    Problem in abi_xhpev, info=  41
src_file: abi_xhpev.f90
src_line: 181
...

[...]

 ITER STEP NUMBER    19
 vtorho : nnsclo_now=  1, note that nnsclo,dbl_nnsclo,istep=  0 0 19

[...]

 ITER STEP NUMBER   100
 vtorho : nnsclo_now=  1, note that nnsclo,dbl_nnsclo,istep=  0 0100

[...]

--- !WARNING
message: |
    abi_xpotrf, info=1
src_file: abi_xorthonormalize.f90
src_line: 115
...

--- !WARNING
message: |
    Problem in abi_xheev, info=   2
src_file: abi_xheev.f90
src_line: 184
...

--- !WARNING
message: |
    Problem in abi_xhegv, info=   6
src_file: abi_xhegv.f90
src_line: 187
...

--- !WARNING
message: |
    Problem in abi_xhpev, info=  41
src_file: abi_xhpev.f90
src_line: 181
...

 Total charge density [el/Bohr^3]
,     Maximum=           NaN  at reduced coord.    0.0000    0.0000    0.0000
,     Minimum=           NaN  at reduced coord.    0.0000    0.0000    0.0000
,  Integrated=           NaN
 ETOT  100                   NaN       NaN 0.000E+00       NaN
 scprqt: <Vxc>=            NaN hartree

 Pulay update with  7 previous iterations:
 mixing of old trial potential : alpha(m:m-4)=        NaN        NaN        NaN        NaN        NaN

 Cartesian components of stress tensor (hartree/bohr^3)
  sigma(1 1)=             NaN  sigma(3 2)=             NaN
  sigma(2 2)=             NaN  sigma(3 1)=             NaN
  sigma(3 3)=             NaN  sigma(2 1)=             NaN

   1  2  1  2  1  2
   2  1  2  1  2  1
   3  4  3  4  3  4
   4  3  4  3  4  3
   5  8  6 10  7  9
   6 10  7  9  5  8
   7  9  5  8  6 10
   8  5  9  7 10  6
   9  7 10  6  8  5
  10  6  8  5  9  7
 ioarr: writing density data
ioarr: file name is /home/weitong/setup/abinit/AbinitGUI/MySims/tets1_1_parallel/wholedata/test1/test1o_DEN

--- !COMMENT
message: |
src_file: m_wffile.F90
src_line: 332
...

ioarr: data written to disk file /home/weitong/setup/abinit/AbinitGUI/MySims/tets1_1_parallel/wholedata/test1/test1o_DEN

 ----iterations are completed or convergence reached----

 outwf: write wavefunction to file /home/weitong/setup/abinit/AbinitGUI/MySims/tets1_1_parallel/wholedata/test1/test1o_WFK, with accesswff 1

--- !COMMENT
message: |
src_file: m_wffile.F90
src_line: 332
...

 === Gap info ===

--- !WARNING
message: |
    Not enough states to calculate the band gap.
src_file: m_ebands.F90
src_line: 2351
...

 Cartesian components of stress tensor (hartree/bohr^3)
  sigma(1 1)=             NaN  sigma(3 2)=             NaN
  sigma(2 2)=             NaN  sigma(3 1)=             NaN
  sigma(3 3)=             NaN  sigma(2 1)=             NaN

-Cartesian components of stress tensor (GPa)         [Pressure=         NaN GPa]
- sigma(1 1)=             NaN  sigma(3 2)=             NaN
- sigma(2 2)=             NaN  sigma(3 1)=             NaN
- sigma(3 3)=             NaN  sigma(2 1)=             NaN

== END DATASET(S) ==============================================================

 -outvars: echo values of variables after computation  --------

 These variables are accessible in NetCDF format (
 /home/weitong/setup/abinit/AbinitGUI/MySims/tets1_1_parallel/wholedata/test1/te
 st1o_OUT.nc)

        accesswff           1
            acell      1.0391549200E+01  1.0391549200E+01  1.0391549200E+01 Bohr
              amu      9.29063800E+01  6.94100000E+00  1.59994000E+01
           diemac      1.00000000E+01
             ecut      8.00000000E+00 Hartree
           ecutsm      5.00000000E-01 Hartree
           etotal                   NaN
            fcart                   NaN               NaN               NaN
                                    NaN               NaN               NaN
                                    NaN               NaN               NaN
                                    NaN               NaN               NaN
                                    NaN               NaN               NaN
                                    NaN               NaN               NaN
                                    NaN               NaN               NaN
                                    NaN               NaN               NaN
                                    NaN               NaN               NaN
                                    NaN               NaN               NaN
           fftalg         401
      fft_opt_lob           2
           iprcch           6
              ixc           7
              kpt      2.50000000E-01  2.50000000E-01  2.50000000E-01
                      -2.50000000E-01  2.50000000E-01  2.50000000E-01
         kptrlatt        2    0    0      0    2    0      0    0    2
          kptrlen      1.94683329E+01
P           mkmem           1
            natom          10
            nband          42
           nbdbuf           2
            ngfft          32      32      32
             nkpt           2
            npfft           4
-           npkpt           2
            nstep         100
             nsym           6
           ntypat           3
              occ      2.000000  2.000000  2.000000  2.000000  2.000000  2.000000
                       2.000000  2.000000  2.000000  2.000000  2.000000  2.000000
                       2.000000  2.000000  2.000000  2.000000  2.000000  2.000000
                       2.000000  2.000000  2.000000  2.000000  2.000000  2.000000
                       0.000000  0.000000  0.000000  0.000000  0.000000  0.000000
                       0.000000  0.000000  0.000000  0.000000  0.000000  0.000000
                       0.000000  0.000000  0.000000  0.000000  0.000000  0.000000
           ortalg          -2
        paral_kgb           1
            rprim      5.4082634987E-01  0.0000000000E+00  8.4113426947E-01
                      -2.7041317494E-01  4.6836935803E-01  8.4113426947E-01
                      -2.7041317494E-01 -4.6836935803E-01  8.4113426947E-01
           shiftk      5.00000000E-01  5.00000000E-01  5.00000000E-01
          spgroup         161
           strten                   NaN               NaN               NaN
                                    NaN               NaN               NaN
           symrel      1  0  0   0  1  0   0  0  1       0  1  0   1  0  0   0  0  1
                       0  0  1   1  0  0   0  1  0       1  0  0   0  0  1   0  1  0
                       0  1  0   0  0  1   1  0  0       0  0  1   0  1  0   1  0  0
            tnons      0.0000000  0.0000000  0.0000000     0.5000000  0.5000000  0.5000000
                       0.0000000  0.0000000  0.0000000     0.5000000  0.5000000  0.5000000
                       0.0000000  0.0000000  0.0000000     0.5000000  0.5000000  0.5000000
           toldfe      1.00000000E-12 Hartree
            typat      1  1  2  2  3  3  3  3  3  3
         wfoptalg          14
              wtk        0.25000    0.75000
           xangst      0.0000000000E+00  0.0000000000E+00  0.0000000000E+00
                       0.0000000000E+00  0.0000000000E+00  6.9380594306E+00
                       0.0000000000E+00  0.0000000000E+00  3.9255540258E+00
                       0.0000000000E+00  0.0000000000E+00  1.0863613456E+01
                      -1.5292397120E+00 -6.3683896031E-01  7.8279811869E+00
                       1.3161385738E+00 -1.0059409589E+00  7.8279811869E+00
                       2.1310113826E-01  1.6427799192E+00  7.8279811869E+00
                      -1.2738930683E+00  9.3276959717E-01  5.5152947101E+00
                      -1.7085563285E-01 -1.5696085575E+00  5.5152947101E+00
                       1.4447487012E+00  6.3683896031E-01  5.5152947101E+00
            xcart      0.0000000000E+00  0.0000000000E+00  0.0000000000E+00
                       0.0000000000E+00  0.0000000000E+00  1.3111032218E+01
                       0.0000000000E+00  0.0000000000E+00  7.4182220287E+00
                       0.0000000000E+00  0.0000000000E+00  2.0529254246E+01
                      -2.8898442472E+00 -1.2034512257E+00  1.4792740617E+01
                       2.4871414573E+00 -1.9009529182E+00  1.4792740617E+01
                       4.0270278992E-01  3.1044041440E+00  1.4792740617E+01
                      -2.4073090218E+00  1.7626790837E+00  1.0422396544E+01
                      -3.2287035435E-01 -2.9661303095E+00  1.0422396544E+01
                       2.7301793761E+00  1.2034512257E+00  1.0422396544E+01
             xred      0.0000000000E+00  0.0000000000E+00  0.0000000000E+00
                       5.0000000000E-01  5.0000000000E-01  5.0000000000E-01
                       2.8290000000E-01  2.8290000000E-01  2.8290000000E-01
                       7.8290000000E-01  7.8290000000E-01  7.8290000000E-01
                       2.2133000000E-01  6.1190333300E-01  8.5916666700E-01
                       8.5916666700E-01  2.2133000000E-01  6.1190333300E-01
                       6.1190333300E-01  8.5916666700E-01  2.2133000000E-01
                       1.1190333300E-01  7.2133000000E-01  3.5916666700E-01
                       3.5916666700E-01  1.1190333300E-01  7.2133000000E-01
                       7.2133000000E-01  3.5916666700E-01  1.1190333300E-01
            znucl       41.00000    3.00000    8.00000

 Suggested references for the acknowledgment of ABINIT usage.

 [1] Large scale ab initio calculations based on three levels of parallelization
 F. Bottin, S. Leroux, A. Knyazev, G. Zerah, Comput. Mat. Science 42, 329, (2008).
 Comment : in case paral_kgb is non-zero. Strong suggestion to cite this paper in your publications.

 [2] Ab initio pseudopotentials for electronic structure calculations of poly-atomic systems,
 using density-functional theory.
 M. Fuchs, M. Scheffler, Comput. Phys. Commun. 119, 67 (1999).
 Comment : Some pseudopotential generated using the FHI code were used.

 [3] ABINIT : First-principles approach of materials and nanosystem properties.
 X. Gonze, B. Amadon, P.-M. Anglade, J.-M. Beuken, F. Bottin, P. Boulanger, F. Bruneval,
 D. Caliste, R. Caracas, M. Cote, T. Deutsch, L. Genovese, Ph. Ghosez, M. Giantomassi
 S. Goedecker, D.R. Hamann, P. Hermet, F. Jollet, G. Jomard, S. Leroux, M. Mancini, S. Mazevet,
 M.J.T. Oliveira, G. Onida, Y. Pouillon, T. Rangel, G.-M. Rignanese, D. Sangalli, R. Shaltaf,
 M. Torrent, M.J. Verstraete, G. Zerah, J.W. Zwanziger
 Computer Phys. Comm. 180, 2582-2615 (2009).
 Comment : the third generic paper describing the ABINIT project.
 Note that a version of this paper, that is not formatted for Computer Phys. Comm.
 The licence allows the authors to put it on the Web.

 [4] A brief introduction to the ABINIT software package.
 X. Gonze, G.-M. Rignanese, M. Verstraete, J.-M. Beuken, Y. Pouillon, R. Caracas, F. Jollet,
 M. Torrent, G. Zerah, M. Mikami, Ph. Ghosez, M. Veithen, J.-Y. Raty, V. Olevano, F. Bruneval,
 L. Reining, R. Godby, G. Onida, D.R. Hamann, and D.C. Allan.
 Z. Kristallogr. 220, 558-562 (2005).
 Comment : the second generic paper describing the ABINIT project. Note that this paper
 should be cited especially if you are using the GW part of ABINIT, as several authors
 of this part are not in the list of authors of the first or third paper.
 Note that it should not redistributed (Copyright by Oldenburg Wissenshaftverlag,
 the licence allows the authors to put it on the Web).

 And optionally :

 [5] First-principles computation of material properties : the ABINIT software project.
 X. Gonze, J.-M. Beuken, R. Caracas, F. Detraux, M. Fuchs, G.-M. Rignanese, L. Sindic,
 M. Verstraete, G. Zerah, F. Jollet, M. Torrent, A. Roy, M. Mikami, Ph. Ghosez, J.-Y. Raty, D.C. Allan.
 Comment : the original paper describing the ABINIT project.

 Calculation completed.
.Delivered    0 WARNINGs and   2 COMMENTs to log file.
--- !FinalSummary
start_date: Sat Mar 29 14:48:32 2014
end_date: Sat Mar 29 14:48:50 2014
overall_cpu_time:         140.6
overall_wall_time:         141.8
...