.Version 8.6.3 of ABINIT

 ABINIT is a project of the Universite Catholique de Louvain,
 Corning Inc. and other collaborators, see ~abinit/doc/developers/contributors.txt .
 Please read ~abinit/doc/users/acknowledgments.html for suggested
 acknowledgments of the ABINIT effort.

.Starting date : Mon 27 Aug 2018.
- ( at 20h18 )

- input  file    -> pressure+.in
- output file    -> pressure+.out
- root for input  files -> tbase1_xi
- root for output files -> tbase1_xo

 DATASET    1 : space group Pm -3 m (#221); Bravais cP (primitive cubic)
     intxc =       0    ionmov =       2      iscf =       5    lmnmax =       7
     lnmax =       7     mgfft =      64  mpssoang =       4    mqgrid =    3160
     natom =       5  nloc_mem =       1    nspden =       1   nspinor =       1
    nsppol =       1      nsym =      48    n1xccc =       0    ntypat =       3
    occopt =       1   xclevel =       2
-    mband =          40        mffmem =           1         mkmem =           2
       mpw =       16548          nfft =      262144          nkpt =          40
  Rough estimation (10% accuracy) of disk space for files :

[...]

 DATASET    4 : space group Pm -3 m (#221); Bravais cP (primitive cubic)
     intxc =       0    ionmov =       2      iscf =       5    lmnmax =       7
     lnmax =       7     mgfft =      64  mpssoang =       4    mqgrid =    3160
     natom =       5  nloc_mem =       1    nspden =       1   nspinor =       1
    nsppol =       1      nsym =      48    n1xccc =       0    ntypat =       3
    occopt =       1   xclevel =       2
-    mband =          40        mffmem =           1         mkmem =           2
       mpw =       16548          nfft =      262144          nkpt =          40
  Rough estimation (10% accuracy) of disk space for files :

------------- Echo of variables that govern the present computation ------------
-
- outvars: echo of selected default values
-   iomode0 =  0 , fftalg0 =312 , wfoptalg0 =  0
-
- outvars: echo of global parameters not present in the input file
-  max_nthreads =    0
-
 -outvars: echo values of preprocessed input variables --------
            acell      1.0844994242E+01  1.0844994242E+01  1.0844994242E+01 Bohr
              amu      1.32905430E+02  2.07200000E+02  3.54527000E+01
          dilatmx      1.05000000E+00
             ecut      3.80000000E+01 Hartree
           ecutsm      5.00000000E-01 Hartree
-          fftalg         312
           getwfk          -1
           ionmov           2
             iscf           5
              ixc          11
           jdtset        1    2    3    4
              kpt     -8.33333333E-02 -1.66666667E-01  0.00000000E+00
                      -8.33333333E-02 -8.33333333E-02  8.33333333E-02
                      -8.33333333E-02 -3.33333333E-01  0.00000000E+00
                      -1.66666667E-01 -2.50000000E-01  0.00000000E+00
                      -8.33333333E-02 -2.50000000E-01  8.33333333E-02
                      -1.66666667E-01 -1.66666667E-01  8.33333333E-02
                      -8.33333333E-02  5.00000000E-01  0.00000000E+00
                      -1.66666667E-01 -4.16666667E-01  0.00000000E+00
                      -8.33333333E-02 -4.16666667E-01  8.33333333E-02
                      -2.50000000E-01 -3.33333333E-01  0.00000000E+00
                      -1.66666667E-01 -3.33333333E-01  8.33333333E-02
                      -2.50000000E-01 -2.50000000E-01  8.33333333E-02
                      -1.66666667E-01 -2.50000000E-01  1.66666667E-01
                      -2.50000000E-01  5.00000000E-01  0.00000000E+00
                      -1.66666667E-01  5.00000000E-01  8.33333333E-02
                      -3.33333333E-01 -4.16666667E-01  0.00000000E+00
                      -2.50000000E-01 -4.16666667E-01  8.33333333E-02
                      -1.66666667E-01 -4.16666667E-01  1.66666667E-01
                      -3.33333333E-01 -3.33333333E-01  8.33333333E-02
                      -2.50000000E-01 -3.33333333E-01  1.66666667E-01
                      -2.50000000E-01 -2.50000000E-01  2.50000000E-01
                      -4.16666667E-01  5.00000000E-01  0.00000000E+00
                      -3.33333333E-01  5.00000000E-01  8.33333333E-02
                      -2.50000000E-01  5.00000000E-01  1.66666667E-01
                      -4.16666667E-01 -4.16666667E-01  8.33333333E-02
                      -3.33333333E-01 -4.16666667E-01  1.66666667E-01
                      -2.50000000E-01 -4.16666667E-01  2.50000000E-01
                      -3.33333333E-01 -3.33333333E-01  2.50000000E-01
                      -8.33333333E-02  0.00000000E+00  0.00000000E+00
                       5.00000000E-01  5.00000000E-01  8.33333333E-02
                      -4.16666667E-01  5.00000000E-01  1.66666667E-01
                      -3.33333333E-01  5.00000000E-01  2.50000000E-01
                      -4.16666667E-01 -4.16666667E-01  2.50000000E-01
                      -3.33333333E-01 -4.16666667E-01  3.33333333E-01
                      -2.50000000E-01  0.00000000E+00  0.00000000E+00
                       5.00000000E-01  5.00000000E-01  2.50000000E-01
                      -4.16666667E-01  5.00000000E-01  3.33333333E-01
                      -4.16666667E-01 -4.16666667E-01  4.16666667E-01
                      -4.16666667E-01  0.00000000E+00  0.00000000E+00
                       5.00000000E-01  5.00000000E-01  4.16666667E-01
         kptrlatt        6   -6    6     -6    6    6     -6   -6    6
          kptrlen      1.12704486E+02
P           mkmem           2
            natom           5
            nband          40
           ndtset           4
            ngfft          64      64      64
             nkpt          40
            nstep         200
             nsym          48
            ntime         100
           ntypat           3
              occ      2.000000  2.000000  2.000000  2.000000  2.000000  2.000000
                       2.000000  2.000000  2.000000  2.000000  2.000000  2.000000
                       2.000000  2.000000  2.000000  2.000000  2.000000  2.000000
                       2.000000  2.000000  2.000000  2.000000  0.000000  0.000000
                       0.000000  0.000000  0.000000  0.000000  0.000000  0.000000
                       0.000000  0.000000  0.000000  0.000000  0.000000  0.000000
                       0.000000  0.000000  0.000000  0.000000
          optcell           2
        pawecutdg      1.00000000E+02 Hartree
           prtcif           1
           prtden           0
           prteig           0
           prtgeo           1
            rprim      0.0000000000E+00  0.0000000000E+00  1.0000000000E+00
                       1.0000000000E+00  0.0000000000E+00  0.0000000000E+00
                       0.0000000000E+00  1.0000000000E+00  0.0000000000E+00
           shiftk      5.00000000E-01  5.00000000E-01  5.00000000E-01
          spgroup         221
        strtarget1    -3.39892892E-05 -3.39892892E-05 -3.39892892E-05
                       0.00000000E+00  0.00000000E+00  0.00000000E+00
        strtarget2    -6.79785785E-05 -6.79785785E-05 -6.79785785E-05
                       0.00000000E+00  0.00000000E+00  0.00000000E+00
        strtarget3    -1.01967900E-04 -1.01967900E-04 -1.01967900E-04
                       0.00000000E+00  0.00000000E+00  0.00000000E+00
        strtarget4    -1.35957200E-04 -1.35957200E-04 -1.35957200E-04
                       0.00000000E+00  0.00000000E+00  0.00000000E+00
           symrel      1  0  0   0  1  0   0  0  1      -1  0  0   0 -1  0   0  0 -1
                      -1  0  0   0  1  0   0  0 -1       1  0  0   0 -1  0   0  0  1
                      -1  0  0   0 -1  0   0  0  1       1  0  0   0  1  0   0  0 -1
                       1  0  0   0 -1  0   0  0 -1      -1  0  0   0  1  0   0  0  1
                       0  1  0   1  0  0   0  0  1       0 -1  0  -1  0  0   0  0 -1
                       0 -1  0   1  0  0   0  0 -1       0  1  0  -1  0  0   0  0  1
                       0 -1  0  -1  0  0   0  0  1       0  1  0   1  0  0   0  0 -1
                       0  1  0  -1  0  0   0  0 -1       0 -1  0   1  0  0   0  0  1
                       0  0  1   1  0  0   0  1  0       0  0 -1  -1  0  0   0 -1  0
                       0  0 -1   1  0  0   0 -1  0       0  0  1  -1  0  0   0  1  0
                       0  0 -1  -1  0  0   0  1  0       0  0  1   1  0  0   0 -1  0
                       0  0  1  -1  0  0   0 -1  0       0  0 -1   1  0  0   0  1  0
                       1  0  0   0  0  1   0  1  0      -1  0  0   0  0 -1   0 -1  0
                      -1  0  0   0  0  1   0 -1  0       1  0  0   0  0 -1   0  1  0
                      -1  0  0   0  0 -1   0  1  0       1  0  0   0  0  1   0 -1  0
                       1  0  0   0  0 -1   0 -1  0      -1  0  0   0  0  1   0  1  0
                       0  1  0   0  0  1   1  0  0       0 -1  0   0  0 -1  -1  0  0
                       0 -1  0   0  0  1  -1  0  0       0  1  0   0  0 -1   1  0  0
                       0 -1  0   0  0 -1   1  0  0       0  1  0   0  0  1  -1  0  0
                       0  1  0   0  0 -1  -1  0  0       0 -1  0   0  0  1   1  0  0
                       0  0  1   0  1  0   1  0  0       0  0 -1   0 -1  0  -1  0  0
                       0  0 -1   0  1  0  -1  0  0       0  0  1   0 -1  0   1  0  0
                       0  0 -1   0 -1  0   1  0  0       0  0  1   0  1  0  -1  0  0
                       0  0  1   0 -1  0  -1  0  0       0  0 -1   0  1  0   1  0  0
           timopt           2
           tolmxf      5.00000000E-06
           tolvrs      1.00000000E-15
            typat      1  2  3  3  3
              wtk        0.02778    0.00926    0.02778    0.02778    0.02778    0.02778
                         0.01389    0.02778    0.02778    0.02778    0.05556    0.02778
                         0.02778    0.01389    0.02778    0.02778    0.05556    0.02778
                         0.02778    0.05556    0.00926    0.01389    0.02778    0.02778
                         0.02778    0.05556    0.02778    0.02778    0.00694    0.00694
                         0.02778    0.02778    0.02778    0.02778    0.00694    0.00694
                         0.02778    0.00926    0.00694    0.00694
           xangst      0.0000000000E+00  0.0000000000E+00  0.0000000000E+00
                       2.8694618900E+00  2.8694618900E+00  2.8694618900E+00
                       2.8694618900E+00  0.0000000000E+00  2.8694618900E+00
                       2.8694618900E+00  2.8694618900E+00  0.0000000000E+00
                       0.0000000000E+00  2.8694618900E+00  2.8694618900E+00
            xcart      0.0000000000E+00  0.0000000000E+00  0.0000000000E+00
                       5.4224971209E+00  5.4224971209E+00  5.4224971209E+00
                       5.4224971209E+00  0.0000000000E+00  5.4224971209E+00
                       5.4224971209E+00  5.4224971209E+00  0.0000000000E+00
                       0.0000000000E+00  5.4224971209E+00  5.4224971209E+00
             xred      0.0000000000E+00  0.0000000000E+00  0.0000000000E+00
                       5.0000000000E-01  5.0000000000E-01  5.0000000000E-01
[...]
  sigma(2 2)= -1.35958599E-04  sigma(3 1)=  0.00000000E+00
  sigma(3 3)= -1.35958599E-04  sigma(2 1)=  0.00000000E+00

-Cartesian components of stress tensor (GPa)         [Pressure=  4.0000E+00 GPa]
- sigma(1 1)= -4.00003942E+00  sigma(3 2)=  0.00000000E+00
- sigma(2 2)= -4.00003942E+00  sigma(3 1)=  0.00000000E+00
- sigma(3 3)= -4.00003942E+00  sigma(2 1)=  0.00000000E+00

== END DATASET(S) ==============================================================

 -outvars: echo values of variables after computation  --------
            acell1     1.0694666581E+01  1.0694666581E+01  1.0694666581E+01 Bohr
            acell2     1.0569967845E+01  1.0569967845E+01  1.0569967845E+01 Bohr
            acell3     1.0462675733E+01  1.0462675733E+01  1.0462675733E+01 Bohr
            acell4     1.0368577630E+01  1.0368577630E+01  1.0368577630E+01 Bohr
              amu      1.32905430E+02  2.07200000E+02  3.54527000E+01
          dilatmx      1.05000000E+00
             ecut      3.80000000E+01 Hartree
           ecutsm      5.00000000E-01 Hartree
           etotal1    -1.2517607885E+02
           etotal2    -1.2517394580E+02
           etotal3    -1.2517093655E+02
           etotal4    -1.2516730508E+02
            fcart1    -0.0000000000E+00 -0.0000000000E+00 -0.0000000000E+00
                      -0.0000000000E+00 -0.0000000000E+00 -0.0000000000E+00
                      -0.0000000000E+00 -0.0000000000E+00 -0.0000000000E+00
                      -0.0000000000E+00 -0.0000000000E+00 -0.0000000000E+00
                      -0.0000000000E+00 -0.0000000000E+00 -0.0000000000E+00
            fcart2    -0.0000000000E+00 -0.0000000000E+00 -0.0000000000E+00
                      -0.0000000000E+00 -0.0000000000E+00 -0.0000000000E+00
                      -0.0000000000E+00 -0.0000000000E+00 -0.0000000000E+00
                      -0.0000000000E+00 -0.0000000000E+00 -0.0000000000E+00
                      -0.0000000000E+00 -0.0000000000E+00 -0.0000000000E+00
            fcart3    -0.0000000000E+00 -0.0000000000E+00 -0.0000000000E+00
                      -0.0000000000E+00 -0.0000000000E+00 -0.0000000000E+00
                      -0.0000000000E+00 -0.0000000000E+00 -0.0000000000E+00
                      -0.0000000000E+00 -0.0000000000E+00 -0.0000000000E+00
                      -0.0000000000E+00 -0.0000000000E+00 -0.0000000000E+00
            fcart4    -0.0000000000E+00 -0.0000000000E+00 -0.0000000000E+00
                      -0.0000000000E+00 -0.0000000000E+00 -0.0000000000E+00
                      -0.0000000000E+00 -0.0000000000E+00 -0.0000000000E+00
                      -0.0000000000E+00 -0.0000000000E+00 -0.0000000000E+00
                      -0.0000000000E+00 -0.0000000000E+00 -0.0000000000E+00
-          fftalg         312
           getwfk          -1
           ionmov           2
             iscf           5
              ixc          11
           jdtset        1    2    3    4
              kpt     -8.33333333E-02 -1.66666667E-01  0.00000000E+00
                      -8.33333333E-02 -8.33333333E-02  8.33333333E-02
                      -8.33333333E-02 -3.33333333E-01  0.00000000E+00
                      -1.66666667E-01 -2.50000000E-01  0.00000000E+00
                      -8.33333333E-02 -2.50000000E-01  8.33333333E-02
                      -1.66666667E-01 -1.66666667E-01  8.33333333E-02
                      -8.33333333E-02  5.00000000E-01  0.00000000E+00
                      -1.66666667E-01 -4.16666667E-01  0.00000000E+00
                      -8.33333333E-02 -4.16666667E-01  8.33333333E-02
                      -2.50000000E-01 -3.33333333E-01  0.00000000E+00
                      -1.66666667E-01 -3.33333333E-01  8.33333333E-02
                      -2.50000000E-01 -2.50000000E-01  8.33333333E-02
                      -1.66666667E-01 -2.50000000E-01  1.66666667E-01
                      -2.50000000E-01  5.00000000E-01  0.00000000E+00
                      -1.66666667E-01  5.00000000E-01  8.33333333E-02
                      -3.33333333E-01 -4.16666667E-01  0.00000000E+00
                      -2.50000000E-01 -4.16666667E-01  8.33333333E-02
                      -1.66666667E-01 -4.16666667E-01  1.66666667E-01
                      -3.33333333E-01 -3.33333333E-01  8.33333333E-02
                      -2.50000000E-01 -3.33333333E-01  1.66666667E-01
                      -2.50000000E-01 -2.50000000E-01  2.50000000E-01
                      -4.16666667E-01  5.00000000E-01  0.00000000E+00
                      -3.33333333E-01  5.00000000E-01  8.33333333E-02
                      -2.50000000E-01  5.00000000E-01  1.66666667E-01
                      -4.16666667E-01 -4.16666667E-01  8.33333333E-02
                      -3.33333333E-01 -4.16666667E-01  1.66666667E-01
                      -2.50000000E-01 -4.16666667E-01  2.50000000E-01
                      -3.33333333E-01 -3.33333333E-01  2.50000000E-01
                      -8.33333333E-02  0.00000000E+00  0.00000000E+00
                       5.00000000E-01  5.00000000E-01  8.33333333E-02
                      -4.16666667E-01  5.00000000E-01  1.66666667E-01
                      -3.33333333E-01  5.00000000E-01  2.50000000E-01
                      -4.16666667E-01 -4.16666667E-01  2.50000000E-01
                      -3.33333333E-01 -4.16666667E-01  3.33333333E-01
                      -2.50000000E-01  0.00000000E+00  0.00000000E+00
                       5.00000000E-01  5.00000000E-01  2.50000000E-01
                      -4.16666667E-01  5.00000000E-01  3.33333333E-01
                      -4.16666667E-01 -4.16666667E-01  4.16666667E-01
                      -4.16666667E-01  0.00000000E+00  0.00000000E+00
                       5.00000000E-01  5.00000000E-01  4.16666667E-01
         kptrlatt        6   -6    6     -6    6    6     -6   -6    6
          kptrlen      1.12704486E+02
P           mkmem           2
            natom           5
            nband          40
           ndtset           4
            ngfft          64      64      64
             nkpt          40
            nstep         200
             nsym          48
            ntime         100
           ntypat           3
              occ      2.000000  2.000000  2.000000  2.000000  2.000000  2.000000
                       2.000000  2.000000  2.000000  2.000000  2.000000  2.000000
                       2.000000  2.000000  2.000000  2.000000  2.000000  2.000000
                       2.000000  2.000000  2.000000  2.000000  0.000000  0.000000
                       0.000000  0.000000  0.000000  0.000000  0.000000  0.000000
                       0.000000  0.000000  0.000000  0.000000  0.000000  0.000000
                       0.000000  0.000000  0.000000  0.000000
          optcell           2
        pawecutdg      1.00000000E+02 Hartree
           prtcif           1
           prtden           0
           prteig           0
           prtgeo           1
            rprim      0.0000000000E+00  0.0000000000E+00  1.0000000000E+00
                       1.0000000000E+00  0.0000000000E+00  0.0000000000E+00
                       0.0000000000E+00  1.0000000000E+00  0.0000000000E+00
           shiftk      5.00000000E-01  5.00000000E-01  5.00000000E-01
          spgroup         221
        strtarget1    -3.39892892E-05 -3.39892892E-05 -3.39892892E-05
                       0.00000000E+00  0.00000000E+00  0.00000000E+00
        strtarget2    -6.79785785E-05 -6.79785785E-05 -6.79785785E-05
                       0.00000000E+00  0.00000000E+00  0.00000000E+00
        strtarget3    -1.01967900E-04 -1.01967900E-04 -1.01967900E-04
                       0.00000000E+00  0.00000000E+00  0.00000000E+00
        strtarget4    -1.35957200E-04 -1.35957200E-04 -1.35957200E-04
                       0.00000000E+00  0.00000000E+00  0.00000000E+00
           strten1    -3.3989195937E-05 -3.3989195937E-05 -3.3989195937E-05
                       0.0000000000E+00  0.0000000000E+00  0.0000000000E+00
           strten2    -6.7979577327E-05 -6.7979577327E-05 -6.7979577327E-05
                       0.0000000000E+00  0.0000000000E+00  0.0000000000E+00
           strten3    -1.0196747579E-04 -1.0196747579E-04 -1.0196747579E-04
                       0.0000000000E+00  0.0000000000E+00  0.0000000000E+00
           strten4    -1.3595859928E-04 -1.3595859928E-04 -1.3595859928E-04
                       0.0000000000E+00  0.0000000000E+00  0.0000000000E+00
           symrel      1  0  0   0  1  0   0  0  1      -1  0  0   0 -1  0   0  0 -1
                      -1  0  0   0  1  0   0  0 -1       1  0  0   0 -1  0   0  0  1
                      -1  0  0   0 -1  0   0  0  1       1  0  0   0  1  0   0  0 -1
                       1  0  0   0 -1  0   0  0 -1      -1  0  0   0  1  0   0  0  1
                       0  1  0   1  0  0   0  0  1       0 -1  0  -1  0  0   0  0 -1
                       0 -1  0   1  0  0   0  0 -1       0  1  0  -1  0  0   0  0  1
                       0 -1  0  -1  0  0   0  0  1       0  1  0   1  0  0   0  0 -1
                       0  1  0  -1  0  0   0  0 -1       0 -1  0   1  0  0   0  0  1
                       0  0  1   1  0  0   0  1  0       0  0 -1  -1  0  0   0 -1  0
                       0  0 -1   1  0  0   0 -1  0       0  0  1  -1  0  0   0  1  0
                       0  0 -1  -1  0  0   0  1  0       0  0  1   1  0  0   0 -1  0
                       0  0  1  -1  0  0   0 -1  0       0  0 -1   1  0  0   0  1  0
                       1  0  0   0  0  1   0  1  0      -1  0  0   0  0 -1   0 -1  0
                      -1  0  0   0  0  1   0 -1  0       1  0  0   0  0 -1   0  1  0
                      -1  0  0   0  0 -1   0  1  0       1  0  0   0  0  1   0 -1  0
                       1  0  0   0  0 -1   0 -1  0      -1  0  0   0  0  1   0  1  0
                       0  1  0   0  0  1   1  0  0       0 -1  0   0  0 -1  -1  0  0
                       0 -1  0   0  0  1  -1  0  0       0  1  0   0  0 -1   1  0  0
                       0 -1  0   0  0 -1   1  0  0       0  1  0   0  0  1  -1  0  0
                       0  1  0   0  0 -1  -1  0  0       0 -1  0   0  0  1   1  0  0
                       0  0  1   0  1  0   1  0  0       0  0 -1   0 -1  0  -1  0  0
                       0  0 -1   0  1  0  -1  0  0       0  0  1   0 -1  0   1  0  0
                       0  0 -1   0 -1  0   1  0  0       0  0  1   0  1  0  -1  0  0
                       0  0  1   0 -1  0  -1  0  0       0  0 -1   0  1  0   1  0  0
           timopt           2
           tolmxf      5.00000000E-06
           tolvrs      1.00000000E-15
            typat      1  2  3  3  3
              wtk        0.02778    0.00926    0.02778    0.02778    0.02778    0.02778
                         0.01389    0.02778    0.02778    0.02778    0.05556    0.02778
                         0.02778    0.01389    0.02778    0.02778    0.05556    0.02778
                         0.02778    0.05556    0.00926    0.01389    0.02778    0.02778
                         0.02778    0.05556    0.02778    0.02778    0.00694    0.00694
                         0.02778    0.02778    0.02778    0.02778    0.00694    0.00694
                         0.02778    0.00926    0.00694    0.00694
           xangst1     0.0000000000E+00  0.0000000000E+00  0.0000000000E+00
                       2.8296869041E+00  2.8296869041E+00  2.8296869041E+00
                       2.8296869041E+00  0.0000000000E+00  2.8296869041E+00
                       2.8296869041E+00  2.8296869041E+00  0.0000000000E+00
                       0.0000000000E+00  2.8296869041E+00  2.8296869041E+00
           xangst2     0.0000000000E+00  0.0000000000E+00  0.0000000000E+00
                       2.7966930396E+00  2.7966930396E+00  2.7966930396E+00
                       2.7966930396E+00  0.0000000000E+00  2.7966930396E+00
                       2.7966930396E+00  2.7966930396E+00  0.0000000000E+00
                       0.0000000000E+00  2.7966930396E+00  2.7966930396E+00
           xangst3     0.0000000000E+00  0.0000000000E+00  0.0000000000E+00
                       2.7683047695E+00  2.7683047695E+00  2.7683047695E+00
                       2.7683047695E+00  0.0000000000E+00  2.7683047695E+00
                       2.7683047695E+00  2.7683047695E+00  0.0000000000E+00
                       0.0000000000E+00  2.7683047695E+00  2.7683047695E+00
           xangst4     0.0000000000E+00  0.0000000000E+00  0.0000000000E+00
                       2.7434074838E+00  2.7434074838E+00  2.7434074838E+00
                       2.7434074838E+00  0.0000000000E+00  2.7434074838E+00
                       2.7434074838E+00  2.7434074838E+00  0.0000000000E+00
                       0.0000000000E+00  2.7434074838E+00  2.7434074838E+00
            xcart1     0.0000000000E+00  0.0000000000E+00  0.0000000000E+00
                       5.3473332905E+00  5.3473332905E+00  5.3473332905E+00
                       5.3473332905E+00  0.0000000000E+00  5.3473332905E+00
                       5.3473332905E+00  5.3473332905E+00  0.0000000000E+00
                       0.0000000000E+00  5.3473332905E+00  5.3473332905E+00
            xcart2     0.0000000000E+00  0.0000000000E+00  0.0000000000E+00
                       5.2849839226E+00  5.2849839226E+00  5.2849839226E+00
                       5.2849839226E+00  0.0000000000E+00  5.2849839226E+00
                       5.2849839226E+00  5.2849839226E+00  0.0000000000E+00
                       0.0000000000E+00  5.2849839226E+00  5.2849839226E+00
            xcart3     0.0000000000E+00  0.0000000000E+00  0.0000000000E+00
                       5.2313378667E+00  5.2313378667E+00  5.2313378667E+00
                       5.2313378667E+00  0.0000000000E+00  5.2313378667E+00
                       5.2313378667E+00  5.2313378667E+00  0.0000000000E+00
                       0.0000000000E+00  5.2313378667E+00  5.2313378667E+00
            xcart4     0.0000000000E+00  0.0000000000E+00  0.0000000000E+00
                       5.1842888152E+00  5.1842888152E+00  5.1842888152E+00
                       5.1842888152E+00  0.0000000000E+00  5.1842888152E+00
                       5.1842888152E+00  5.1842888152E+00  0.0000000000E+00
                       0.0000000000E+00  5.1842888152E+00  5.1842888152E+00
             xred      0.0000000000E+00  0.0000000000E+00  0.0000000000E+00
                       5.0000000000E-01  5.0000000000E-01  5.0000000000E-01
                       5.0000000000E-01  5.0000000000E-01  0.0000000000E+00
                       0.0000000000E+00  5.0000000000E-01  5.0000000000E-01
                       5.0000000000E-01  0.0000000000E+00  5.0000000000E-01
            znucl       55.00000   82.00000   17.00000

-
-  as well as % of the time and number of calls for node 0-
-<BEGIN_TIMER mpi_nprocs = 32, omp_nthreads = 1, mpi_rank = 0>
- cpu_time =        11458.8, wall_time =        11521.9
-
-                                                                  (-1=no count)
- projbd                      4449.088   1.2   4460.644   1.2         391588      -1.00        1.00       1.00
- nonlop(apply)               2159.705   0.6   2169.233   0.6         245154      -1.00        1.00       1.00
- others (110)                1887.976   0.5   1894.280   0.5             -1      -1.00        1.00       1.00
-<END_TIMER>
-
- subtotal                   11000.320   3.0  11040.400   3.0                                  1.00       1.00

- as well as % of the total time and number of calls

-<BEGIN_TIMER mpi_nprocs = 32, omp_nthreads = 1, mpi_rank = world>
- cpu_time =      367935.5, wall_time =      368699.4
-
-                                                                  (-1=no count)
- projbd                    110199.022  30.0 110333.324  29.9        7836320      -1.00        1.00       1.00
- nonlop(apply)              51217.156  13.9  51302.489  13.9        4905360      -1.00        1.00       1.00
- fourwf%(pot)               30890.882   8.4  30936.092   8.4        4905360      -1.00        1.00       1.00
- vtowfk(ssdiag)              5767.488   1.6   5770.287   1.6            -32      -1.00        1.00       1.00
- fourdp                      4378.698   1.2   4406.291   1.2         244800      -1.00        0.99       0.99
- xc:pot/=fourdp              3120.646   0.8   3141.037   0.9          19040      -1.00        0.99       0.99
- fourwf%(den)                2006.629   0.5   2009.416   0.5         506880      -1.00        1.00       1.00
- others (105)                3252.616   0.9   3236.438   0.9             -1      -1.00        1.00       1.00
-<END_TIMER>

- subtotal                  356034.549  96.8 356723.675  96.8                                  1.00       1.00

 Suggested references for the acknowledgment of ABINIT usage.

 Calculation completed.
.Delivered   0 WARNINGs and  11 COMMENTs to log file.