.Version 8.4.4 of ABINIT

 ABINIT is a project of the Universite Catholique de Louvain,
 Corning Inc. and other collaborators, see ~abinit/doc/developers/contributors.txt .
 Please read ~abinit/doc/users/acknowledgments.html for suggested
 acknowledgments of the ABINIT effort.

.Starting date : Wed 29 Nov 2017.
- ( at 14h30 )

- input  file    -> HfS2-dfpt.in
- output file    -> HfS2.out
- root for input  files -> HfS2i
- root for output files -> HfS2o

- inpspheads : Reading pseudopotential header in XML form from Hf.LDA_PW-JTH.xml
- inpspheads : Reading pseudopotential header in XML form from S.LDA_PW-JTH.xml

 DATASET    1 : space group P-3 m 1 (#164); Bravais hP (primitive hexag.)
     intxc =       0    ionmov =       0      iscf =      17    lmnmax =      18
     lnmax =       6     mgfft =      54  mpssoang =       3    mqgrid =    4043
     natom =       3  nloc_mem =       2    nspden =       1   nspinor =       1
    nsppol =       1      nsym =      12    n1xccc =       1    ntypat =       2
    occopt =       7   xclevel =       1
-    mband =          50        mffmem =           1         mkmem =           1
       mpw =        3320          nfft =       69984          nkpt =          93
Pmy_natom=         1
 PAW method is used; the additional fine FFT grid is defined by:
   mgfftf=        90    nfftf =    262440
  Rough estimation (10% accuracy) of disk space for files :

 DATASET    2 : space group P-3 m 1 (#164); Bravais hP (primitive hexag.)
     intxc =       0      iscf =      -3    lmnmax =      18     lnmax =       6
     mgfft =      54  mpssoang =       3    mqgrid =    3001     natom =       3
  nloc_mem =       2    nspden =       1   nspinor =       1    nsppol =       1
      nsym =      12    n1xccc =       1    ntypat =       2    occopt =       7
   xclevel =       1
-    mband =          50        mffmem =           1         mkmem =           1
-   mkqmem =           1        mk1mem =           1           mpw =        3320
      nfft =       69984          nkpt =          93
Pmy_natom=         1
  Rough estimation (10% accuracy) of disk space for files :

 DATASET    3 : space group P-3 m 1 (#164); Bravais hP (primitive hexag.)
     intxc =       0      iscf =       7    lmnmax =      18     lnmax =       6
     mgfft =      54  mpssoang =       3    mqgrid =    3001     natom =       3
  nloc_mem =       2    nspden =       1   nspinor =       1    nsppol =       1
      nsym =      12    n1xccc =       1    ntypat =       2    occopt =       7
   xclevel =       1
-    mband =          50        mffmem =           1         mkmem =           1
-   mkqmem =           1        mk1mem =           1           mpw =        3320
      nfft =       69984          nkpt =          93
Pmy_natom=         1
  Rough estimation (10% accuracy) of disk space for files :

------------- Echo of variables that govern the present computation ------------
-
- outvars: echo of selected default values
-   iomode0 =  0 , fftalg0 =112 , wfoptalg0 = 10
-
- outvars: echo of global parameters not present in the input file
-  max_nthreads =    0
-
 -outvars: echo values of preprocessed input variables --------
            acell      6.7188483702E+00  6.7188483702E+00  1.0733248998E+01 Bohr
              amu      1.78490000E+02  3.20660000E+01
           diemac      1.20000000E+01
             ecut      3.00000000E+01 Hartree
           ecutsm      5.00000000E-01 Hartree
-          fftalg         112
           getddk1          0
           getddk2          0
           getddk3         -1
           getwfk1          0
           getwfk2         -1
           getwfk3         -2
             iscf1         17
             iscf2         -3
             iscf3          7
              ixc       -1012
           jdtset        1    2    3
              kpt      0.00000000E+00  0.00000000E+00  8.33333333E-02
                       8.33333333E-02  0.00000000E+00  8.33333333E-02
                       1.66666667E-01  0.00000000E+00  8.33333333E-02
                       2.50000000E-01  0.00000000E+00  8.33333333E-02
                       3.33333333E-01  0.00000000E+00  8.33333333E-02
                       4.16666667E-01  0.00000000E+00  8.33333333E-02
                       5.00000000E-01  0.00000000E+00  8.33333333E-02
                      -4.16666667E-01  0.00000000E+00  8.33333333E-02
                      -3.33333333E-01  0.00000000E+00  8.33333333E-02
                      -2.50000000E-01  0.00000000E+00  8.33333333E-02
                      -1.66666667E-01  0.00000000E+00  8.33333333E-02
                      -8.33333333E-02  0.00000000E+00  8.33333333E-02
                       8.33333333E-02  8.33333333E-02  8.33333333E-02
                       1.66666667E-01  8.33333333E-02  8.33333333E-02
                       2.50000000E-01  8.33333333E-02  8.33333333E-02
                       3.33333333E-01  8.33333333E-02  8.33333333E-02
                       4.16666667E-01  8.33333333E-02  8.33333333E-02
                       5.00000000E-01  8.33333333E-02  8.33333333E-02
                      -4.16666667E-01  8.33333333E-02  8.33333333E-02
                      -3.33333333E-01  8.33333333E-02  8.33333333E-02
                      -2.50000000E-01  8.33333333E-02  8.33333333E-02
                       1.66666667E-01  1.66666667E-01  8.33333333E-02
                       2.50000000E-01  1.66666667E-01  8.33333333E-02
                       3.33333333E-01  1.66666667E-01  8.33333333E-02
                       4.16666667E-01  1.66666667E-01  8.33333333E-02
                       5.00000000E-01  1.66666667E-01  8.33333333E-02
                      -4.16666667E-01  1.66666667E-01  8.33333333E-02
                       2.50000000E-01  2.50000000E-01  8.33333333E-02
                       3.33333333E-01  2.50000000E-01  8.33333333E-02
                       4.16666667E-01  2.50000000E-01  8.33333333E-02
                       3.33333333E-01  3.33333333E-01  8.33333333E-02
                       0.00000000E+00  0.00000000E+00  2.50000000E-01
                       8.33333333E-02  0.00000000E+00  2.50000000E-01
                       1.66666667E-01  0.00000000E+00  2.50000000E-01
                       2.50000000E-01  0.00000000E+00  2.50000000E-01
                       3.33333333E-01  0.00000000E+00  2.50000000E-01
                       4.16666667E-01  0.00000000E+00  2.50000000E-01
                       5.00000000E-01  0.00000000E+00  2.50000000E-01
                      -4.16666667E-01  0.00000000E+00  2.50000000E-01
                      -3.33333333E-01  0.00000000E+00  2.50000000E-01
                      -2.50000000E-01  0.00000000E+00  2.50000000E-01
                      -1.66666667E-01  0.00000000E+00  2.50000000E-01
                      -8.33333333E-02  0.00000000E+00  2.50000000E-01
                       8.33333333E-02  8.33333333E-02  2.50000000E-01
                       1.66666667E-01  8.33333333E-02  2.50000000E-01
                       2.50000000E-01  8.33333333E-02  2.50000000E-01
                       3.33333333E-01  8.33333333E-02  2.50000000E-01
                       4.16666667E-01  8.33333333E-02  2.50000000E-01
                       5.00000000E-01  8.33333333E-02  2.50000000E-01
                      -4.16666667E-01  8.33333333E-02  2.50000000E-01
                       outvar_i_n : Printing only first  50 k-points.
           kptopt           4
         kptrlatt       12    0    0      0   12    0      0    0    6
          kptrlen      6.43994940E+01
P           mkmem           1
P          mkqmem           1
P          mk1mem           1
            natom           3
            nband          50
           nbdbuf           4
           ndtset           3
            ngfft          36      36      54
          ngfftdg          54      54      90
             nkpt          93
             nqpt1          0
             nqpt2          1
             nqpt3          1
            nstep         500
             nsym          12
           ntypat           2
              occ      2.000000  2.000000  2.000000  2.000000  2.000000  2.000000
                       2.000000  2.000000  2.000000  2.000000  2.000000  2.000000
                       0.000000  0.000000  0.000000  0.000000  0.000000  0.000000
                       0.000000  0.000000  0.000000  0.000000  0.000000  0.000000
                       0.000000  0.000000  0.000000  0.000000  0.000000  0.000000
                       0.000000  0.000000  0.000000  0.000000  0.000000  0.000000
                       0.000000  0.000000  0.000000  0.000000  0.000000  0.000000
                       0.000000  0.000000  0.000000  0.000000  0.000000  0.000000
                       0.000000  0.000000
                       2.000000  2.000000  2.000000  2.000000  2.000000  2.000000
                       2.000000  2.000000  2.000000  2.000000  2.000000  2.000000
                       0.000000  0.000000  0.000000  0.000000  0.000000  0.000000
                       0.000000  0.000000  0.000000  0.000000  0.000000  0.000000
                       0.000000  0.000000  0.000000  0.000000  0.000000  0.000000
                       0.000000  0.000000  0.000000  0.000000  0.000000  0.000000
                       0.000000  0.000000  0.000000  0.000000  0.000000  0.000000
                       0.000000  0.000000  0.000000  0.000000  0.000000  0.000000
                       0.000000  0.000000
                       2.000000  2.000000  2.000000  2.000000  2.000000  2.000000
                       2.000000  2.000000  2.000000  2.000000  2.000000  2.000000
                       0.000000  0.000000  0.000000  0.000000  0.000000  0.000000
                       0.000000  0.000000  0.000000  0.000000  0.000000  0.000000
                       0.000000  0.000000  0.000000  0.000000  0.000000  0.000000
                       0.000000  0.000000  0.000000  0.000000  0.000000  0.000000
                       0.000000  0.000000  0.000000  0.000000  0.000000  0.000000
                       0.000000  0.000000  0.000000  0.000000  0.000000  0.000000
                       0.000000  0.000000
                       2.000000  2.000000  2.000000  2.000000  2.000000  2.000000
                       2.000000  2.000000  2.000000  2.000000  2.000000  2.000000
                       0.000000  0.000000  0.000000  0.000000  0.000000  0.000000
                       0.000000  0.000000  0.000000  0.000000  0.000000  0.000000
                       0.000000  0.000000  0.000000  0.000000  0.000000  0.000000
                       0.000000  0.000000  0.000000  0.000000  0.000000  0.000000
                       0.000000  0.000000  0.000000  0.000000  0.000000  0.000000
                       0.000000  0.000000  0.000000  0.000000  0.000000  0.000000
                       0.000000  0.000000
                       2.000000  2.000000  2.000000  2.000000  2.000000  2.000000
                       2.000000  2.000000  2.000000  2.000000  2.000000  2.000000
                       0.000000  0.000000  0.000000  0.000000  0.000000  0.000000
                       0.000000  0.000000  0.000000  0.000000  0.000000  0.000000
[...]
  from  electric field response requires nsym=1

  Phonon wavevector (reduced coordinates) :  0.00000  0.00000  0.00000
 Phonon energies in Hartree :
  -1.281802E-03 -1.281802E-03 -4.350209E-05  1.400192E-03  1.450970E-03
   1.450970E-03  1.516384E-03  1.780480E-03  1.780480E-03
 Phonon frequencies in cm-1    :
- -2.813229E+02 -2.813229E+02 -9.547604E+00  3.073067E+02  3.184510E+02
-  3.184510E+02  3.328078E+02  3.907701E+02  3.907701E+02

  Phonon at Gamma, with non-analyticity in the
  direction (cartesian coordinates)  1.00000  0.00000  0.00000
 Phonon energies in Hartree :
  -1.281802E-03 -1.217862E-03 -3.902000E-05  1.400197E-03  1.450970E-03
   1.516384E-03  1.719125E-03  1.780480E-03  1.780480E-03
 Phonon frequencies in cm-1    :
- -2.813229E+02 -2.672899E+02 -8.563900E+00  3.073077E+02  3.184510E+02
-  3.328078E+02  3.773042E+02  3.907701E+02  3.907701E+02

[...]

  Phonon at Gamma, with non-analyticity in the
  direction (cartesian coordinates)  0.00000  0.00000  1.00000
 Phonon energies in Hartree :
  -1.281802E-03 -1.281557E-03 -4.343735E-05  1.450966E-03  1.450970E-03
   1.482801E-03  1.516384E-03  1.780480E-03  1.780480E-03
 Phonon frequencies in cm-1    :
- -2.813229E+02 -2.812692E+02 -9.533395E+00  3.184503E+02  3.184510E+02
-  3.254371E+02  3.328078E+02  3.907701E+02  3.907701E+02

== END DATASET(S) ==============================================================

 -outvars: echo values of variables after computation  --------
            acell      6.7188483702E+00  6.7188483702E+00  1.0733248998E+01 Bohr
              amu      1.78490000E+02  3.20660000E+01
           diemac      1.20000000E+01
             ecut      3.00000000E+01 Hartree
           ecutsm      5.00000000E-01 Hartree
           etotal1    -7.1192540738E+01
           etotal2    -1.0474838595E+01
           etotal3    -6.4488650910E+01
            fcart1     0.0000000000E+00 -1.2050982044E-31  0.0000000000E+00
                       0.0000000000E+00  4.2178437153E-31 -3.3808947135E-11
                       0.0000000000E+00 -3.0127455109E-31  3.3808947135E-11
            fcart3     0.0000000000E+00  0.0000000000E+00  0.0000000000E+00
                       0.0000000000E+00  0.0000000000E+00  0.0000000000E+00
                       0.0000000000E+00  0.0000000000E+00  0.0000000000E+00
-          fftalg         112
           getddk1          0
           getddk2          0
           getddk3         -1
           getwfk1          0
           getwfk2         -1
           getwfk3         -2
             iscf1         17
             iscf2         -3
             iscf3          7
              ixc       -1012
           jdtset        1    2    3
              kpt      0.00000000E+00  0.00000000E+00  8.33333333E-02
                       8.33333333E-02  0.00000000E+00  8.33333333E-02
                       1.66666667E-01  0.00000000E+00  8.33333333E-02
                       2.50000000E-01  0.00000000E+00  8.33333333E-02
                       3.33333333E-01  0.00000000E+00  8.33333333E-02
                       4.16666667E-01  0.00000000E+00  8.33333333E-02
                       5.00000000E-01  0.00000000E+00  8.33333333E-02
                      -4.16666667E-01  0.00000000E+00  8.33333333E-02
                      -3.33333333E-01  0.00000000E+00  8.33333333E-02
                      -2.50000000E-01  0.00000000E+00  8.33333333E-02
                      -1.66666667E-01  0.00000000E+00  8.33333333E-02
                      -8.33333333E-02  0.00000000E+00  8.33333333E-02
                       8.33333333E-02  8.33333333E-02  8.33333333E-02
                       1.66666667E-01  8.33333333E-02  8.33333333E-02
                       2.50000000E-01  8.33333333E-02  8.33333333E-02
                       3.33333333E-01  8.33333333E-02  8.33333333E-02
                       4.16666667E-01  8.33333333E-02  8.33333333E-02
                       5.00000000E-01  8.33333333E-02  8.33333333E-02
                      -4.16666667E-01  8.33333333E-02  8.33333333E-02
                      -3.33333333E-01  8.33333333E-02  8.33333333E-02
                      -2.50000000E-01  8.33333333E-02  8.33333333E-02
                       1.66666667E-01  1.66666667E-01  8.33333333E-02
                       2.50000000E-01  1.66666667E-01  8.33333333E-02
                       3.33333333E-01  1.66666667E-01  8.33333333E-02
                       4.16666667E-01  1.66666667E-01  8.33333333E-02
                       5.00000000E-01  1.66666667E-01  8.33333333E-02
                      -4.16666667E-01  1.66666667E-01  8.33333333E-02
                       2.50000000E-01  2.50000000E-01  8.33333333E-02
                       3.33333333E-01  2.50000000E-01  8.33333333E-02
                       4.16666667E-01  2.50000000E-01  8.33333333E-02
                       3.33333333E-01  3.33333333E-01  8.33333333E-02
                       0.00000000E+00  0.00000000E+00  2.50000000E-01
                       8.33333333E-02  0.00000000E+00  2.50000000E-01
                       1.66666667E-01  0.00000000E+00  2.50000000E-01
                       2.50000000E-01  0.00000000E+00  2.50000000E-01
                       3.33333333E-01  0.00000000E+00  2.50000000E-01
                       4.16666667E-01  0.00000000E+00  2.50000000E-01
                       5.00000000E-01  0.00000000E+00  2.50000000E-01
                      -4.16666667E-01  0.00000000E+00  2.50000000E-01
                      -3.33333333E-01  0.00000000E+00  2.50000000E-01
                      -2.50000000E-01  0.00000000E+00  2.50000000E-01
                      -1.66666667E-01  0.00000000E+00  2.50000000E-01
                      -8.33333333E-02  0.00000000E+00  2.50000000E-01
                       8.33333333E-02  8.33333333E-02  2.50000000E-01
                       1.66666667E-01  8.33333333E-02  2.50000000E-01
                       2.50000000E-01  8.33333333E-02  2.50000000E-01
                       3.33333333E-01  8.33333333E-02  2.50000000E-01
                       4.16666667E-01  8.33333333E-02  2.50000000E-01
                       5.00000000E-01  8.33333333E-02  2.50000000E-01
                      -4.16666667E-01  8.33333333E-02  2.50000000E-01
                       outvar_i_n : Printing only first  50 k-points.
           kptopt           4
         kptrlatt       12    0    0      0   12    0      0    0    6
          kptrlen      6.43994940E+01
P           mkmem           1
P          mkqmem           1
P          mk1mem           1
            natom           3
            nband          50
           nbdbuf           4
           ndtset           3
            ngfft          36      36      54
          ngfftdg          54      54      90
             nkpt          93
             nqpt1          0
             nqpt2          1
             nqpt3          1
            nstep         500
             nsym          12
           ntypat           2
              occ      2.000000  2.000000  2.000000  2.000000  2.000000  2.000000
                       2.000000  2.000000  2.000000  2.000000  2.000000  2.000000
                       0.000000  0.000000  0.000000  0.000000  0.000000  0.000000
                       0.000000  0.000000  0.000000  0.000000  0.000000  0.000000
                       0.000000  0.000000  0.000000  0.000000  0.000000  0.000000
                       0.000000  0.000000  0.000000  0.000000  0.000000  0.000000
                       0.000000  0.000000  0.000000  0.000000  0.000000  0.000000
                       0.000000  0.000000  0.000000  0.000000  0.000000  0.000000
                       0.000000  0.000000
                       2.000000  2.000000  2.000000  2.000000  2.000000  2.000000
                       2.000000  2.000000  2.000000  2.000000  2.000000  2.000000
                       0.000000  0.000000  0.000000  0.000000  0.000000  0.000000
                       0.000000  0.000000  0.000000  0.000000  0.000000  0.000000
                       0.000000  0.000000  0.000000  0.000000  0.000000  0.000000
                       0.000000  0.000000  0.000000  0.000000  0.000000  0.000000
                       0.000000  0.000000  0.000000  0.000000  0.000000  0.000000
                       0.000000  0.000000  0.000000  0.000000  0.000000  0.000000
                       0.000000  0.000000
                       2.000000  2.000000  2.000000  2.000000  2.000000  2.000000
                       2.000000  2.000000  2.000000  2.000000  2.000000  2.000000
                       0.000000  0.000000  0.000000  0.000000  0.000000  0.000000
                       0.000000  0.000000  0.000000  0.000000  0.000000  0.000000
                       0.000000  0.000000  0.000000  0.000000  0.000000  0.000000
                       0.000000  0.000000  0.000000  0.000000  0.000000  0.000000
                       0.000000  0.000000  0.000000  0.000000  0.000000  0.000000
                       0.000000  0.000000  0.000000  0.000000  0.000000  0.000000
                       0.000000  0.000000
                       2.000000  2.000000  2.000000  2.000000  2.000000  2.000000
                       2.000000  2.000000  2.000000  2.000000  2.000000  2.000000
                       0.000000  0.000000  0.000000  0.000000  0.000000  0.000000
                       0.000000  0.000000  0.000000  0.000000  0.000000  0.000000
                       0.000000  0.000000  0.000000  0.000000  0.000000  0.000000
                       0.000000  0.000000  0.000000  0.000000  0.000000  0.000000
                       0.000000  0.000000  0.000000  0.000000  0.000000  0.000000
                       0.000000  0.000000  0.000000  0.000000  0.000000  0.000000
                       0.000000  0.000000
                       2.000000  2.000000  2.000000  2.000000  2.000000  2.000000
                       2.000000  2.000000  2.000000  2.000000  2.000000  2.000000
                       0.000000  0.000000  0.000000  0.000000  0.000000  0.000000
                       0.000000  0.000000  0.000000  0.000000  0.000000  0.000000
                       0.000000  0.000000  0.000000  0.000000  0.000000  0.000000
                       0.000000  0.000000  0.000000  0.000000  0.000000  0.000000
                       0.000000  0.000000  0.000000  0.000000  0.000000  0.000000
                       0.000000  0.000000  0.000000  0.000000  0.000000  0.000000
                       0.000000  0.000000
                       2.000000  2.000000  2.000000  2.000000  2.000000  2.000000
                       2.000000  2.000000  2.000000  2.000000  2.000000  2.000000
                       0.000000  0.000000  0.000000  0.000000  0.000000  0.000000
                       0.000000  0.000000  0.000000  0.000000  0.000000  0.000000
                       0.000000  0.000000  0.000000  0.000000  0.000000  0.000000
                       0.000000  0.000000  0.000000  0.000000  0.000000  0.000000
                       0.000000  0.000000  0.000000  0.000000  0.000000  0.000000
                       0.000000  0.000000  0.000000  0.000000  0.000000  0.000000
                       0.000000  0.000000
                       2.000000  2.000000  2.000000  2.000000  2.000000  2.000000
                       2.000000  2.000000  2.000000  2.000000  2.000000  2.000000
                       0.000000  0.000000  0.000000  0.000000  0.000000  0.000000
                       0.000000  0.000000  0.000000  0.000000  0.000000  0.000000
                       0.000000  0.000000  0.000000  0.000000  0.000000  0.000000
                       0.000000  0.000000  0.000000  0.000000  0.000000  0.000000
                       0.000000  0.000000  0.000000  0.000000  0.000000  0.000000
[...]
                       0.000000  0.000000  0.000000  0.000000  0.000000  0.000000
                       0.000000  0.000000  0.000000  0.000000  0.000000  0.000000
                       0.000000  0.000000  0.000000  0.000000  0.000000  0.000000
                       0.000000  0.000000  0.000000  0.000000  0.000000  0.000000
                       0.000000  0.000000  0.000000  0.000000  0.000000  0.000000
                       0.000000  0.000000
                       2.000000  2.000000  2.000000  2.000000  2.000000  2.000000
                       2.000000  2.000000  2.000000  2.000000  2.000000  2.000000
                       0.000000  0.000000  0.000000  0.000000  0.000000  0.000000
                       0.000000  0.000000  0.000000  0.000000  0.000000  0.000000
                       0.000000  0.000000  0.000000  0.000000  0.000000  0.000000
                       0.000000  0.000000  0.000000  0.000000  0.000000  0.000000
                       0.000000  0.000000  0.000000  0.000000  0.000000  0.000000
                       0.000000  0.000000  0.000000  0.000000  0.000000  0.000000
                       0.000000  0.000000
                       prtocc : prtvol=0, do not print more k-points.
           occopt           7
        optdriver1          0
        optdriver2          1
        optdriver3          1
        pawecutdg      7.00000000E+01 Hartree
           prtden           0
           prteig           0
          rfatpol1          1       1
          rfatpol2          1       1
          rfatpol3          1       3
            rfdir1          0       0       0
            rfdir2          1       1       1
            rfdir3          1       1       1
           rfelfd1          0
           rfelfd2          2
           rfelfd3          3
           rfphon1          0
           rfphon2          0
           rfphon3          1
            rprim      1.0000000000E+00  0.0000000000E+00  0.0000000000E+00
                      -5.0000000000E-01  8.6602540378E-01  0.0000000000E+00
                       0.0000000000E+00  0.0000000000E+00  1.0000000000E+00
           shiftk      0.00000000E+00  0.00000000E+00  5.00000000E-01
          spgroup         164
           strten1     1.2946064359E-11  1.2946059155E-11  1.7862896926E-11
                       0.0000000000E+00  0.0000000000E+00  0.0000000000E+00
           strten3     0.0000000000E+00  0.0000000000E+00  0.0000000000E+00
                       0.0000000000E+00  0.0000000000E+00  0.0000000000E+00
           symrel      1  0  0   0  1  0   0  0  1      -1  0  0   0 -1  0   0  0 -1
                      -1  0  0   1  1  0   0  0  1       1  0  0  -1 -1  0   0  0 -1
                       0  1  0  -1 -1  0   0  0  1       0 -1  0   1  1  0   0  0 -1
                       0 -1  0  -1  0  0   0  0  1       0  1  0   1  0  0   0  0 -1
                      -1 -1  0   1  0  0   0  0  1       1  1  0  -1  0  0   0  0 -1
                       1  1  0   0 -1  0   0  0  1      -1 -1  0   0  1  0   0  0 -1
           tolvrs1     1.00000000E-18
           tolvrs2     0.00000000E+00
           tolvrs3     1.00000000E-18
           tolwfr1     0.00000000E+00
           tolwfr2     1.00000000E-22
           tolwfr3     0.00000000E+00
           tsmear      1.00000000E-04 Hartree
            typat      1  2  2
           useylm           1
              wtk        0.00231    0.00694    0.00694    0.00694    0.00694    0.00694
                         0.00694    0.00694    0.00694    0.00694    0.00694    0.00694
                         0.01389    0.01389    0.01389    0.01389    0.01389    0.01389
                         0.01389    0.01389    0.01389    0.01389    0.01389    0.01389
                         0.01389    0.01389    0.01389    0.01389    0.01389    0.01389
                         0.00463    0.00231    0.00694    0.00694    0.00694    0.00694
                         0.00694    0.00694    0.00694    0.00694    0.00694    0.00694
                         0.00694    0.01389    0.01389    0.01389    0.01389    0.01389
                         0.01389    0.01389
                       outvars : Printing only first  50 k-points.
           xangst      9.2578453699E-31 -1.0508217960E-29  1.3636696211E-17
                       1.7777307127E+00  1.0263733055E+00  1.4425906866E+00
                      -4.5745906635E-16  2.0527466111E+00  4.2372000572E+00
            xcart      1.7494792330E-30 -1.9857654090E-29  2.5769621196E-17
                       3.3594241851E+00  1.9395644576E+00  2.7261013196E+00
                      -8.6447235241E-16  3.8791289152E+00  8.0071476784E+00
             xred     -1.4459833242E-30 -3.4127342373E-30  2.4009152495E-18
                       6.6666666667E-01  3.3333333333E-01  2.5398659065E-01
                       3.3333333333E-01  6.6666666667E-01  7.4601340935E-01
            znucl       72.00000   16.00000

- Timing analysis has been suppressed with timopt=0

 Suggested references for the acknowledgment of ABINIT usage.

 Calculation completed.
.Delivered   0 WARNINGs and   0 COMMENTs to log file.