.Version 6.0.2  of ABINIT
.(sequential version, prepared for a x86_64_linux_gnu4.1 computer)

 ABINIT is a project of the Universite Catholique de Louvain,
 Corning Inc. and other collaborators, see ~abinit/doc/developers/contributors.txt .
 Please read ~abinit/doc/users/acknowledgments.html for suggested
 acknowledgments of the ABINIT effort.

.Starting date : Wed 26 May 2010.

- input  file    -> g.in
- output file    -> g.out
- root for input  files -> gi
- root for output files -> go

 Symmetries : space group P2/m (# 10); Bravais mP (primitive monocl.)
   intxc =         0  ionmov =         2    iscf =         7 xclevel =         1
  lmnmax =         1   lnmax =         1   mband =         5  mffmem =         1
P  mgfft =       320   mkmem =        74 mpssoang=         2     mpw =     11511
  mqgrid =      3001   natom =         2    nfft =    259200    nkpt =        74
  nloalg =         4  nspden =         1 nspinor =         1  nsppol =         1
    nsym =         4  n1xccc =      2501  ntypat =         1  occopt =         1
  Rough estimation (10% accuracy) of disk space for files :

 -outvars: echo values of preprocessed input variables --------
            acell     2.6734900465E+00  2.7804296484E+00  5.6691783987E+01 Bohr
              amu     1.20110000E+01
           diemac     1.20000000E+01
          dilatmx     1.10000000E+00
             ecut     3.00000000E+01 Hartree
           ecutsm     5.00000000E-01 Hartree
          iatfixy       1    2
           ionmov          2
           istwfk       2    0    0    0    0    0    3    0    0    0
                       0    0    0    0    0    0    0    0    0    0
                       0    0    0    0    0    0    0    0    0    0
                       0    0    0    0    0    0    0    0    0    0
                       0    0    0    0    0    0    0    0    0    0
                       outvar1 : prtvol=0, do not print more k-points.
              kpt     0.00000000E+00  0.00000000E+00  0.00000000E+00
                     8.33333333E-02  0.00000000E+00  0.00000000E+00
                     1.66666667E-01  0.00000000E+00  0.00000000E+00
                     2.50000000E-01  0.00000000E+00  0.00000000E+00
                     3.33333333E-01  0.00000000E+00  0.00000000E+00
                     4.16666667E-01  0.00000000E+00  0.00000000E+00
                     5.00000000E-01  0.00000000E+00  0.00000000E+00
                     0.00000000E+00  8.33333333E-02  0.00000000E+00
                     8.33333333E-02  8.33333333E-02  0.00000000E+00
                     1.66666667E-01  8.33333333E-02  0.00000000E+00
                     2.50000000E-01  8.33333333E-02  0.00000000E+00
                     3.33333333E-01  8.33333333E-02  0.00000000E+00
                     4.16666667E-01  8.33333333E-02  0.00000000E+00
                     5.00000000E-01  8.33333333E-02  0.00000000E+00
                    -4.16666667E-01  8.33333333E-02  0.00000000E+00
                    -3.33333333E-01  8.33333333E-02  0.00000000E+00
                    -2.50000000E-01  8.33333333E-02  0.00000000E+00
                    -1.66666667E-01  8.33333333E-02  0.00000000E+00
                    -8.33333333E-02  8.33333333E-02  0.00000000E+00
                     0.00000000E+00  1.66666667E-01  0.00000000E+00
                     8.33333333E-02  1.66666667E-01  0.00000000E+00
                     1.66666667E-01  1.66666667E-01  0.00000000E+00
                     2.50000000E-01  1.66666667E-01  0.00000000E+00
                     3.33333333E-01  1.66666667E-01  0.00000000E+00
                     4.16666667E-01  1.66666667E-01  0.00000000E+00
                     5.00000000E-01  1.66666667E-01  0.00000000E+00
                    -4.16666667E-01  1.66666667E-01  0.00000000E+00
                    -3.33333333E-01  1.66666667E-01  0.00000000E+00
                    -2.50000000E-01  1.66666667E-01  0.00000000E+00
                    -1.66666667E-01  1.66666667E-01  0.00000000E+00
                    -8.33333333E-02  1.66666667E-01  0.00000000E+00
                     0.00000000E+00  2.50000000E-01  0.00000000E+00
                     8.33333333E-02  2.50000000E-01  0.00000000E+00
                     1.66666667E-01  2.50000000E-01  0.00000000E+00
                     2.50000000E-01  2.50000000E-01  0.00000000E+00
                     3.33333333E-01  2.50000000E-01  0.00000000E+00
                     4.16666667E-01  2.50000000E-01  0.00000000E+00
                     5.00000000E-01  2.50000000E-01  0.00000000E+00
                    -4.16666667E-01  2.50000000E-01  0.00000000E+00
                    -3.33333333E-01  2.50000000E-01  0.00000000E+00
                    -2.50000000E-01  2.50000000E-01  0.00000000E+00
                    -1.66666667E-01  2.50000000E-01  0.00000000E+00
                    -8.33333333E-02  2.50000000E-01  0.00000000E+00
                     0.00000000E+00  3.33333333E-01  0.00000000E+00
                     8.33333333E-02  3.33333333E-01  0.00000000E+00
                     1.66666667E-01  3.33333333E-01  0.00000000E+00
                     2.50000000E-01  3.33333333E-01  0.00000000E+00
                     3.33333333E-01  3.33333333E-01  0.00000000E+00
                     4.16666667E-01  3.33333333E-01  0.00000000E+00
                     5.00000000E-01  3.33333333E-01  0.00000000E+00
                              outvar1 : prtvol=0, do not print more k-points.
          kptrlen     5.55674471E+01
         kptrlatt    12  0  0   0 12  0   0  0  1
P           mkmem         74
          natfixy          2
            natom          2
            nband          5
            ngfft         27      30     320
             nkpt         74
            nstep        100
             nsym          4
            ntime         50
           ntypat          1
              occ     2.000000  2.000000  2.000000  2.000000  0.000000
          optcell          2
           prtgeo          1
            rprim     1.5000000000E+00 -8.6602540400E-01  0.0000000000E+00
                     1.5000000000E+00  8.6602540400E-01  0.0000000000E+00
                     0.0000000000E+00  0.0000000000E+00  1.0000000000E+00
          spgroup         10
           symrel     1  0  0   0  1  0   0  0  1      -1  0  0   0 -1  0   0  0 -1
                    -1  0  0   0 -1  0   0  0  1       1  0  0   0  1  0   0  0 -1
            tnons     0.0000000  0.0000000  0.0000000     0.3333333  0.3205128  0.0000000
                     0.3333333  0.3205128  0.0000000     0.0000000  0.0000000  0.0000000
           toldff     1.00000000E-08
            typat     1  1
              wtk       0.00694    0.01389    0.01389    0.01389    0.01389    0.01389
                       0.00694    0.01389    0.01389    0.01389    0.01389    0.01389
                       0.01389    0.01389    0.01389    0.01389    0.01389    0.01389
                       0.01389    0.01389    0.01389    0.01389    0.01389    0.01389
                       0.01389    0.01389    0.01389    0.01389    0.01389    0.01389
                       0.01389    0.01389    0.01389    0.01389    0.01389    0.01389
                       0.01389    0.01389    0.01389    0.01389    0.01389    0.01389
                       0.01389    0.01389    0.01389    0.01389    0.01389    0.01389
                       0.01389    0.01389
                       outvars : prtvol=0, do not print more k-points.
           xangst     0.0000000000E+00  0.0000000000E+00  0.0000000000E+00
                     1.4147500000E+00  0.0000000000E+00  0.0000000000E+00
            xcart     0.0000000000E+00  0.0000000000E+00  0.0000000000E+00
                     2.6734900465E+00  0.0000000000E+00  0.0000000000E+00
             xred     0.0000000000E+00  0.0000000000E+00  0.0000000000E+00
                     3.3333333333E-01  3.2051282051E-01  0.0000000000E+00
            znucl       6.00000

 chkinp: Checking input parameters for consistency.

== DATASET  1 ==================================================================

 Real(R)+Recip(G) space primitive vectors, cartesian coordinates (Bohr,Bohr^-1):
 R(1)=  4.0102351 -2.3153103  0.0000000  G(1)=  0.1246810 -0.2159538  0.0000000
 R(2)=  4.1706445  2.4079227  0.0000000  G(2)=  0.1198855  0.2076479  0.0000000
 R(3)=  0.0000000  0.0000000 56.6917840  G(3)=  0.0000000  0.0000000  0.0176392
 Unit cell volume ucvol=  1.0948698E+03 bohr^3
 Angles (23,13,12)=  9.00000000E+01  9.00000000E+01  6.00000000E+01 degrees

 getcut: wavevector=  0.0000  0.0000  0.0000  ngfft=  27  30 320
         ecut(hartree)=     36.300   => boxcut(ratio)=   2.07065

--- Pseudopotential description ------------------------------------------------
- pspini: atom type   1  psp file is 6c.pspnc
- pspatm: opening atomic psp file    6c.pspnc
  Troullier-Martins psp for element  C         Thu Oct 27 17:29:33 EDT 1994
   6.00000   4.00000    940714                znucl, zion, pspdat
    1    1    1    1      2001   0.00000      pspcod,pspxc,lmax,lloc,mmax,r2well
    0  10.372  24.987    1   1.4850707        l,e99.0,e99.9,nproj,rcpsp
   0.00000000   0.00000000   0.00000000   0.00000000     rms, ekb1, ekb2, epsatm
    1  15.431  21.987    0   1.4850707        l,e99.0,e99.9,nproj,rcpsp
   0.00000000   0.00000000   0.00000000   0.00000000     rms, ekb1, ekb2, epsatm
    0.83985002509544    0.99012430797080    0.51184907750884   rchrg,fchrg,qchrg
 pspatm: epsatm=    0.92590353
         --- l  ekb(1:nproj) -->
             0    4.921466
 pspatm: atomic psp has been read  and splines computed

   1.48144565E+01                                ecore*ucvol(ha*bohr**3)

P newkpt: treating      5 bands with npw=    5758 for ikpt=   1
P newkpt: treating      5 bands with npw=   11488 for ikpt=   2
P newkpt: treating      5 bands with npw=   11507 for ikpt=   3
P newkpt: treating      5 bands with npw=   11471 for ikpt=   4
P newkpt: treating      5 bands with npw=   11463 for ikpt=   5
P newkpt: treating      5 bands with npw=   11431 for ikpt=   6
P newkpt: treating      5 bands with npw=    5712 for ikpt=   7
P newkpt: treating      5 bands with npw=   11479 for ikpt=   8
P newkpt: treating      5 bands with npw=   11511 for ikpt=   9
P newkpt: treating      5 bands with npw=   11507 for ikpt=  10
P newkpt: treating      5 bands with npw=   11496 for ikpt=  11
P newkpt: treating      5 bands with npw=   11492 for ikpt=  12
P newkpt: treating      5 bands with npw=   11482 for ikpt=  13
P newkpt: treating      5 bands with npw=   11424 for ikpt=  14
P newkpt: treating      5 bands with npw=   11414 for ikpt=  15
P newkpt: treating      5 bands with npw=   11427 for ikpt=  16
P newkpt: treating      5 bands with npw=   11440 for ikpt=  17
P newkpt: treating      5 bands with npw=   11455 for ikpt=  18
P newkpt: treating      5 bands with npw=   11471 for ikpt=  19
P newkpt: treating      5 bands with npw=   11484 for ikpt=  20
P newkpt: treating      5 bands with npw=   11503 for ikpt=  21
P newkpt: treating      5 bands with npw=   11486 for ikpt=  22
P newkpt: treating      5 bands with npw=   11505 for ikpt=  23
P newkpt: treating      5 bands with npw=   11492 for ikpt=  24
P newkpt: treating      5 bands with npw=   11492 for ikpt=  25
[...]
  -0.70934  -0.50986  -0.35741  -0.25966   0.01352
 kpt#  14, nband=  5, wtk=  0.01389, kpt=  0.5000  0.0833  0.0000 (reduced coord)
  -0.65361  -0.58166  -0.37009  -0.20913  -0.05380
 kpt#  15, nband=  5, wtk=  0.01389, kpt= -0.4167  0.0833  0.0000 (reduced coord)
  -0.65298  -0.58217  -0.37018  -0.20961  -0.05279
 kpt#  16, nband=  5, wtk=  0.01389, kpt= -0.3333  0.0833  0.0000 (reduced coord)
  -0.70872  -0.50991  -0.35796  -0.26025   0.01573
 kpt#  17, nband=  5, wtk=  0.01389, kpt= -0.2500  0.0833  0.0000 (reduced coord)
  -0.75537  -0.43232  -0.33455  -0.31232   0.09946
 kpt#  18, nband=  5, wtk=  0.01389, kpt= -0.1667  0.0833  0.0000 (reduced coord)
  -0.79105  -0.35627  -0.35413  -0.30269   0.06110
 kpt#  19, nband=  5, wtk=  0.01389, kpt= -0.0833  0.0833  0.0000 (reduced coord)
  -0.81514  -0.38281  -0.29187  -0.26866   0.02826
 kpt#  20, nband=  5, wtk=  0.01389, kpt=  0.0000  0.1667  0.0000 (reduced coord)
  -0.80896  -0.37570  -0.30256  -0.28533   0.03654
 kpt#  21, nband=  5, wtk=  0.01389, kpt=  0.0833  0.1667  0.0000 (reduced coord)
  -0.81514  -0.38281  -0.29187  -0.26866   0.02826
 kpt#  22, nband=  5, wtk=  0.01389, kpt=  0.1667  0.1667  0.0000 (reduced coord)
  -0.80927  -0.37547  -0.32089  -0.26491   0.03637
 kpt#  23, nband=  5, wtk=  0.01389, kpt=  0.2500  0.1667  0.0000 (reduced coord)
  -0.79143  -0.36181  -0.35386  -0.29632   0.06092
 kpt#  24, nband=  5, wtk=  0.01389, kpt=  0.3333  0.1667  0.0000 (reduced coord)
  -0.76188  -0.40945  -0.34688  -0.31859   0.10177
 kpt#  25, nband=  5, wtk=  0.01389, kpt=  0.4167  0.1667  0.0000 (reduced coord)
  -0.72109  -0.46937  -0.38864  -0.27127   0.04000
 kpt#  26, nband=  5, wtk=  0.01389, kpt=  0.5000  0.1667  0.0000 (reduced coord)
  -0.67008  -0.53773  -0.41167  -0.21684  -0.03180
 kpt#  27, nband=  5, wtk=  0.01389, kpt= -0.4167  0.1667  0.0000 (reduced coord)
  -0.62008  -0.59426  -0.41919  -0.18250  -0.07163
 kpt#  28, nband=  5, wtk=  0.01389, kpt= -0.3333  0.1667  0.0000 (reduced coord)
  -0.66885  -0.53781  -0.41300  -0.21837  -0.02793
 kpt#  29, nband=  5, wtk=  0.01389, kpt= -0.2500  0.1667  0.0000 (reduced coord)
  -0.71997  -0.46603  -0.39358  -0.27249   0.04569
 kpt#  30, nband=  5, wtk=  0.01389, kpt= -0.1667  0.1667  0.0000 (reduced coord)
  -0.76099  -0.39809  -0.36015  -0.31941   0.10230
 kpt#  31, nband=  5, wtk=  0.01389, kpt= -0.0833  0.1667  0.0000 (reduced coord)
  -0.79083  -0.35435  -0.34492  -0.31559   0.06126
 kpt#  32, nband=  5, wtk=  0.01389, kpt=  0.0000  0.2500  0.0000 (reduced coord)
  -0.77867  -0.38161  -0.34053  -0.31642   0.07772
 kpt#  33, nband=  5, wtk=  0.01389, kpt=  0.0833  0.2500  0.0000 (reduced coord)
  -0.79083  -0.35435  -0.34492  -0.31559   0.06126
 kpt#  34, nband=  5, wtk=  0.01389, kpt=  0.1667  0.2500  0.0000 (reduced coord)
  -0.79105  -0.35627  -0.35413  -0.30269   0.06110
 kpt#  35, nband=  5, wtk=  0.01389, kpt=  0.2500  0.2500  0.0000 (reduced coord)
  -0.77935  -0.39456  -0.33985  -0.29990   0.07729
 kpt#  36, nband=  5, wtk=  0.01389, kpt=  0.3333  0.2500  0.0000 (reduced coord)
  -0.75589  -0.43381  -0.33243  -0.31190   0.09636
 kpt#  37, nband=  5, wtk=  0.01389, kpt=  0.4167  0.2500  0.0000 (reduced coord)
  -0.72109  -0.46937  -0.38864  -0.27127   0.04000
 kpt#  38, nband=  5, wtk=  0.01389, kpt=  0.5000  0.2500  0.0000 (reduced coord)
  -0.67577  -0.50618  -0.44402  -0.22024  -0.02029
 kpt#  39, nband=  5, wtk=  0.01389, kpt= -0.4167  0.2500  0.0000 (reduced coord)
  -0.62213  -0.55727  -0.47234  -0.16694  -0.07704
 kpt#  40, nband=  5, wtk=  0.01389, kpt= -0.3333  0.2500  0.0000 (reduced coord)
  -0.62086  -0.55637  -0.47478  -0.17005  -0.07203
 kpt#  41, nband=  5, wtk=  0.01389, kpt= -0.2500  0.2500  0.0000 (reduced coord)
  -0.67412  -0.49856  -0.45417  -0.22317  -0.01213
 kpt#  42, nband=  5, wtk=  0.01389, kpt= -0.1667  0.2500  0.0000 (reduced coord)
  -0.71962  -0.45831  -0.40286  -0.27327   0.04919
 kpt#  43, nband=  5, wtk=  0.01389, kpt= -0.0833  0.2500  0.0000 (reduced coord)
  -0.75478  -0.42195  -0.34801  -0.31315   0.10449
 kpt#  44, nband=  5, wtk=  0.01389, kpt=  0.0000  0.3333  0.0000 (reduced coord)
  -0.73687  -0.46416  -0.34264  -0.29390   0.06809
 kpt#  45, nband=  5, wtk=  0.01389, kpt=  0.0833  0.3333  0.0000 (reduced coord)
  -0.75478  -0.42195  -0.34801  -0.31315   0.10449
 kpt#  46, nband=  5, wtk=  0.01389, kpt=  0.1667  0.3333  0.0000 (reduced coord)
  -0.76099  -0.39809  -0.36015  -0.31941   0.10230
 kpt#  47, nband=  5, wtk=  0.01389, kpt=  0.2500  0.3333  0.0000 (reduced coord)
  -0.75537  -0.43232  -0.33455  -0.31232   0.09946
 kpt#  48, nband=  5, wtk=  0.01389, kpt=  0.3333  0.3333  0.0000 (reduced coord)
  -0.73803  -0.47368  -0.32824  -0.29211   0.05917
 kpt#  49, nband=  5, wtk=  0.01389, kpt=  0.4167  0.3333  0.0000 (reduced coord)
  -0.70934  -0.50986  -0.35741  -0.25966   0.01352
 kpt#  50, nband=  5, wtk=  0.01389, kpt=  0.5000  0.3333  0.0000 (reduced coord)
  -0.67008  -0.53773  -0.41167  -0.21684  -0.03180
 prteigrs : prtvol=0 or 1, do not print more k-points.

 Total charge density [el/Bohr^3]
,     Maximum=    3.4786E-01  at reduced coord.    0.5185    0.2333    0.0000
,Next maximum=    3.4693E-01  at reduced coord.    0.8148    0.1000    0.0000
,     Minimum=    1.3002E-10  at reduced coord.    0.4815    0.6667    0.4969
,Next minimum=    1.3097E-10  at reduced coord.    0.8519    0.6667    0.4969

 Components of total free energy (in Hartree) :

    Kinetic energy  =  8.31698562338936E+00
    Hartree energy  =  9.10968711087508E+01
    XC energy       = -4.28831204212408E+00
    Ewald energy    =  8.22316163416616E+01
    PspCore energy  =  1.40755462530039E-02
    Loc. psp. energy= -1.90802989917617E+02
    NL   psp  energy=  1.35875756789206E+00
    >>>>>>>>> Etotal= -1.20729957717943E+01

 Other information on the energy :
    Total energy(eV)= -3.28522922286452E+02 ; Band energy (Ha)=  -3.6362038479E+00
 rms coord change=  1.8505E-03   atom, delta coord (reduced):
     1       -0.003205129633      0.000000000000      0.000000000000
     2        0.003205129633      0.000000000000      0.000000000000

 Cartesian components of stress tensor (hartree/bohr^3)
  sigma(1 1)=  1.73444665E-11  sigma(3 2)=  0.00000000E+00
  sigma(2 2)= -7.35341915E-12  sigma(3 1)=  0.00000000E+00
  sigma(3 3)= -1.36829919E-11  sigma(2 1)=  8.57089814E-12

-Cartesian components of stress tensor (GPa)         [Pressure=  3.6207E-08 GPa]
- sigma(1 1)=  5.10291737E-07  sigma(3 2)=  0.00000000E+00
- sigma(2 2)= -2.16345024E-07  sigma(3 1)=  0.00000000E+00
- sigma(3 3)= -4.02567452E-07  sigma(2 1)=  2.52164487E-07

== END DATASET(S) ==============================================================

 -outvars: echo values of variables after computation  --------
            acell     4.6418498493E+00  4.6278919276E+00  5.6630872652E+01 Bohr
              amu     1.20110000E+01
           diemac     1.20000000E+01
          dilatmx     1.10000000E+00
             ecut     3.00000000E+01 Hartree
           ecutsm     5.00000000E-01 Hartree
           etotal    -1.2072995772E+01
            fcart    -1.2682812583E-02 -2.1402942855E-02  0.0000000000E+00
                     1.2682812583E-02  2.1402942855E-02  0.0000000000E+00
          iatfixy       1    2
           ionmov          2
           istwfk       2    0    0    0    0    0    3    0    0    0
                       0    0    0    0    0    0    0    0    0    0
                       0    0    0    0    0    0    0    0    0    0
                       0    0    0    0    0    0    0    0    0    0
                       0    0    0    0    0    0    0    0    0    0
                       outvar1 : prtvol=0, do not print more k-points.
              kpt     0.00000000E+00  0.00000000E+00  0.00000000E+00
                     8.33333333E-02  0.00000000E+00  0.00000000E+00
                     1.66666667E-01  0.00000000E+00  0.00000000E+00
                     2.50000000E-01  0.00000000E+00  0.00000000E+00
                     3.33333333E-01  0.00000000E+00  0.00000000E+00
                     4.16666667E-01  0.00000000E+00  0.00000000E+00
                     5.00000000E-01  0.00000000E+00  0.00000000E+00
                     0.00000000E+00  8.33333333E-02  0.00000000E+00
                     8.33333333E-02  8.33333333E-02  0.00000000E+00
                     1.66666667E-01  8.33333333E-02  0.00000000E+00
                     2.50000000E-01  8.33333333E-02  0.00000000E+00
                     3.33333333E-01  8.33333333E-02  0.00000000E+00
                     4.16666667E-01  8.33333333E-02  0.00000000E+00
                     5.00000000E-01  8.33333333E-02  0.00000000E+00
                    -4.16666667E-01  8.33333333E-02  0.00000000E+00
                    -3.33333333E-01  8.33333333E-02  0.00000000E+00
                    -2.50000000E-01  8.33333333E-02  0.00000000E+00
                    -1.66666667E-01  8.33333333E-02  0.00000000E+00
                    -8.33333333E-02  8.33333333E-02  0.00000000E+00
                     0.00000000E+00  1.66666667E-01  0.00000000E+00
                     8.33333333E-02  1.66666667E-01  0.00000000E+00
                     1.66666667E-01  1.66666667E-01  0.00000000E+00
                     2.50000000E-01  1.66666667E-01  0.00000000E+00
                     3.33333333E-01  1.66666667E-01  0.00000000E+00
                     4.16666667E-01  1.66666667E-01  0.00000000E+00
                     5.00000000E-01  1.66666667E-01  0.00000000E+00
                    -4.16666667E-01  1.66666667E-01  0.00000000E+00
                    -3.33333333E-01  1.66666667E-01  0.00000000E+00
                    -2.50000000E-01  1.66666667E-01  0.00000000E+00
                    -1.66666667E-01  1.66666667E-01  0.00000000E+00
                    -8.33333333E-02  1.66666667E-01  0.00000000E+00
                     0.00000000E+00  2.50000000E-01  0.00000000E+00
                     8.33333333E-02  2.50000000E-01  0.00000000E+00
                     1.66666667E-01  2.50000000E-01  0.00000000E+00
                     2.50000000E-01  2.50000000E-01  0.00000000E+00
                     3.33333333E-01  2.50000000E-01  0.00000000E+00
                     4.16666667E-01  2.50000000E-01  0.00000000E+00
                     5.00000000E-01  2.50000000E-01  0.00000000E+00
                    -4.16666667E-01  2.50000000E-01  0.00000000E+00
                    -3.33333333E-01  2.50000000E-01  0.00000000E+00
                    -2.50000000E-01  2.50000000E-01  0.00000000E+00
                    -1.66666667E-01  2.50000000E-01  0.00000000E+00
                    -8.33333333E-02  2.50000000E-01  0.00000000E+00
                     0.00000000E+00  3.33333333E-01  0.00000000E+00
                     8.33333333E-02  3.33333333E-01  0.00000000E+00
                     1.66666667E-01  3.33333333E-01  0.00000000E+00
                     2.50000000E-01  3.33333333E-01  0.00000000E+00
                     3.33333333E-01  3.33333333E-01  0.00000000E+00
                     4.16666667E-01  3.33333333E-01  0.00000000E+00
                     5.00000000E-01  3.33333333E-01  0.00000000E+00
                              outvar1 : prtvol=0, do not print more k-points.
          kptrlen     5.55674471E+01
         kptrlatt    12  0  0   0 12  0   0  0  1
P           mkmem         74
          natfixy          2
            natom          2
            nband          5
            ngfft         27      30     320
             nkpt         74
            nstep        100
             nsym          4
            ntime         50
           ntypat          1
              occ     2.000000  2.000000  2.000000  2.000000  0.000000
          optcell          2
           prtgeo          1
            rprim     8.6029861526E-01 -5.0979043987E-01  0.0000000000E+00
                     8.7249338613E-01  4.8862592149E-01  0.0000000000E+00
                     0.0000000000E+00  0.0000000000E+00  1.0000000000E+00
          spgroup         10
           strten     1.7344466509E-11 -7.3534191516E-12 -1.3682991877E-11
                     0.0000000000E+00  0.0000000000E+00  8.5708981416E-12
           symrel     1  0  0   0  1  0   0  0  1      -1  0  0   0 -1  0   0  0 -1
                    -1  0  0   0 -1  0   0  0  1       1  0  0   0  1  0   0  0 -1
            tnons     0.0000000  0.0000000  0.0000000     0.3333333  0.3205128  0.0000000
                     0.3333333  0.3205128  0.0000000     0.0000000  0.0000000  0.0000000
           toldff     1.00000000E-08
            typat     1  1
              wtk       0.00694    0.01389    0.01389    0.01389    0.01389    0.01389
                       0.00694    0.01389    0.01389    0.01389    0.01389    0.01389
                       0.01389    0.01389    0.01389    0.01389    0.01389    0.01389
                       0.01389    0.01389    0.01389    0.01389    0.01389    0.01389
                       0.01389    0.01389    0.01389    0.01389    0.01389    0.01389
                       0.01389    0.01389    0.01389    0.01389    0.01389    0.01389
                       0.01389    0.01389    0.01389    0.01389    0.01389    0.01389
                       0.01389    0.01389    0.01389    0.01389    0.01389    0.01389
                       0.01389    0.01389
                       outvars : prtvol=0, do not print more k-points.
           xangst    -6.7730930571E-03  4.0135576504E-03  0.0000000000E+00
                     1.3960188261E+00 -3.7887267084E-02  0.0000000000E+00
            xcart    -1.2799290950E-02  7.5845247777E-03  0.0000000000E+00
                     2.6380932576E+00 -7.1596558712E-02  0.0000000000E+00
             xred    -3.2051296329E-03  0.0000000000E+00  0.0000000000E+00
                     3.3653846297E-01  3.2051282051E-01  0.0000000000E+00
            znucl       6.00000

- as well as % of the total time and number of calls

-                                                                  (-1=no count)
- fourwf(pot)                20087.947  75.4  20088.650  75.4        1197836
- fourwf(den)                 1589.293   6.0   1589.507   6.0         163392
- projbd                      1293.869   4.9   1290.458   4.8        1911712
- nonlop(apply)                754.850   2.8    750.540   2.8        1197836
- vtowfk(ssdiag)               357.529   1.3    357.459   1.3             -1
- vtorho-kpt loop              249.321   0.9    249.113   0.9            552
- getghc-other                 224.103   0.8    229.261   0.9             -1
- 64   others                  369.686   1.4    371.205   1.4

- subtotal                   24926.598  93.6  24926.193  93.6

 Suggested references for the acknowledgment of ABINIT usage.

 [1] ABINIT : First-principles approach of materials and nanosystem properties.
 X. Gonze, B. Amadon, P.-M. Anglade, J.-M. Beuken, F. Bottin, P. Boulanger, F. Bruneval,
 D. Caliste, R. Caracas, M. Cote, T. Deutsch, L. Genovese, Ph. Ghosez, M. Giantomassi
 S. Goedecker, D.R. Hamann, P. Hermet, F. Jollet, G. Jomard, S. Leroux, M. Mancini, S. Mazevet,
 M.J.T. Oliveira, G. Onida, Y. Pouillon, T. Rangel, G.-M. Rignanese, D. Sangalli, R. Shaltaf,
 M. Torrent, M.J. Verstraete, G. Zerah, J.W. Zwanziger
 Computer Phys. Comm. 180, 2582-2615 (2009).
 Comment : the third generic paper describing the ABINIT project.
 Note that a version of this paper, that is not formatted for Computer Phys. Comm.
 The licence allows the authors to put it on the Web.

 [2] A brief introduction to the ABINIT software package.
 X. Gonze, G.-M. Rignanese, M. Verstraete, J.-M. Beuken, Y. Pouillon, R. Caracas, F. Jollet,
 M. Torrent, G. Zerah, M. Mikami, Ph. Ghosez, M. Veithen, J.-Y. Raty, V. Olevano, F. Bruneval,
 L. Reining, R. Godby, G. Onida, D.R. Hamann, and D.C. Allan.
 Z. Kristallogr. 220, 558-562 (2005).
 Comment : the second generic paper describing the ABINIT project. Note that this paper
 should be cited especially if you are using the GW part of ABINIT, as several authors
 of this part are not in the list of authors of the first or third paper.
 Note that it should not redistributed (Copyright by Oldenburg Wissenshaftverlag,
 the licence allows the authors to put it on the Web).

 And optionally :

 [3] First-principles computation of material properties : the ABINIT software project.
 X. Gonze, J.-M. Beuken, R. Caracas, F. Detraux, M. Fuchs, G.-M. Rignanese, L. Sindic,
 M. Verstraete, G. Zerah, F. Jollet, M. Torrent, A. Roy, M. Mikami, Ph. Ghosez, J.-Y. Raty, D.C. Allan.
 Comment : the original paper describing the ABINIT project.

 [4] Fast radix 2, 3, 4 and 5 kernels for Fast Fourier Transformations
 on computers with overlapping multiply-add instructions.
 S. Goedecker, SIAM J. on Scientific Computing 18, 1605 (1997).

 Calculation completed.
.Delivered    1 WARNINGs and  51 COMMENTs to log file.