.Version 8.6.3 of ABINIT

 ABINIT is a project of the Universite Catholique de Louvain,
 Corning Inc. and other collaborators, see ~abinit/doc/developers/contributors.txt .
 Please read ~abinit/doc/users/acknowledgments.html for suggested
 acknowledgments of the ABINIT effort.

.Starting date : Tue 18 Jun 2019.
- ( at 16h05 )

- input  file    -> srtio3.in
- output file    -> srtio3.out
- root for input  files -> t4xi
- root for output files -> t4xo

 Symmetries : space group Pb a m (# 55); Bravais oP (primitive ortho.)
     intxc =       0    ionmov =       2      iscf =       2    lmnmax =       3
     lnmax =       3     mgfft =     320  mpssoang =       3    mqgrid =   15275
     natom =      80  nloc_mem =       1    nspden =       1   nspinor =       1
    nsppol =       1      nsym =       8    n1xccc =       0    ntypat =       3
    occopt =       1   xclevel =       1
-    mband =         362        mffmem =           1         mkmem =           1
       mpw =       10326          nfft =      384000          nkpt =           6
  Rough estimation (10% accuracy) of disk space for files :

------------- Echo of variables that govern the present computation ------------
-
- outvars: echo of selected default values
-   iomode0 =  0 , fftalg0 =112 , wfoptalg0 =  0
-
- outvars: echo of global parameters not present in the input file
-  max_nthreads =    0
-
 -outvars: echo values of preprocessed input variables --------
-          iomode           1
            acell      7.7439000000E+00  7.7439000000E+00  7.7439000000E+00 Bohr
              amu      2.07200000E+02  9.12240000E+01  1.59994000E+01
        autoparal           1
     densfor_pred           6
           diemac      4.00000000E+00
           diemix      5.00000000E-01
             ecut      6.00000000E+01 Hartree
-          fftalg         401
           ionmov           2
             iscf           2
              ixc           7
              kpt      1.25000000E-01  2.50000000E-01  8.33333333E-02
                       3.75000000E-01  2.50000000E-01  8.33333333E-02
                       1.25000000E-01  2.50000000E-01  2.50000000E-01
                       3.75000000E-01  2.50000000E-01  2.50000000E-01
                       1.25000000E-01  2.50000000E-01  4.16666667E-01
                       3.75000000E-01  2.50000000E-01  4.16666667E-01
         kptrlatt        4    0    0      0    2    0      0    0    6
          kptrlen      6.19512000E+01
P           mkmem           1
            natom          80
            nband         362
            ngfft         120     320      80
             nkpt           6
-          npband           2
-           npfft           8
-           npkpt           6
            nstep         100
             nsym           8
            ntime           7
           ntypat           3
              occ      2.000000  2.000000  2.000000  2.000000  2.000000  2.000000
                       2.000000  2.000000  2.000000  2.000000  2.000000  2.000000
                       2.000000  2.000000  2.000000  2.000000  2.000000  2.000000
                       2.000000  2.000000  2.000000  2.000000  2.000000  2.000000
                       2.000000  2.000000  2.000000  2.000000  2.000000  2.000000
                       2.000000  2.000000  2.000000  2.000000  2.000000  2.000000
                       2.000000  2.000000  2.000000  2.000000  2.000000  2.000000
                       2.000000  2.000000  2.000000  2.000000  2.000000  2.000000
                       2.000000  2.000000  2.000000  2.000000  2.000000  2.000000
                       2.000000  2.000000  2.000000  2.000000  2.000000  2.000000
                       2.000000  2.000000  2.000000  2.000000  2.000000  2.000000
                       2.000000  2.000000  2.000000  2.000000  2.000000  2.000000
                       2.000000  2.000000  2.000000  2.000000  2.000000  2.000000
                       2.000000  2.000000  2.000000  2.000000  2.000000  2.000000
                       2.000000  2.000000  2.000000  2.000000  2.000000  2.000000
                       2.000000  2.000000  2.000000  2.000000  2.000000  2.000000
                       2.000000  2.000000  2.000000  2.000000  2.000000  2.000000
                       2.000000  2.000000  2.000000  2.000000  2.000000  2.000000
                       2.000000  2.000000  2.000000  2.000000  2.000000  2.000000
                       2.000000  2.000000  2.000000  2.000000  2.000000  2.000000
                       2.000000  2.000000  2.000000  2.000000  2.000000  2.000000
                       2.000000  2.000000  2.000000  2.000000  2.000000  2.000000
                       2.000000  2.000000  2.000000  2.000000  2.000000  2.000000
                       2.000000  2.000000  2.000000  2.000000  2.000000  2.000000
                       2.000000  2.000000  2.000000  2.000000  2.000000  2.000000
                       2.000000  2.000000  2.000000  2.000000  2.000000  2.000000
                       2.000000  2.000000  2.000000  2.000000  2.000000  2.000000
                       2.000000  2.000000  2.000000  2.000000  2.000000  2.000000
                       2.000000  2.000000  2.000000  2.000000  2.000000  2.000000
                       2.000000  2.000000  2.000000  2.000000  2.000000  2.000000
                       2.000000  2.000000  2.000000  2.000000  2.000000  2.000000
                       2.000000  2.000000  2.000000  2.000000  2.000000  2.000000
                       2.000000  2.000000  2.000000  2.000000  2.000000  2.000000
                       2.000000  2.000000  2.000000  2.000000  2.000000  2.000000
                       2.000000  2.000000  2.000000  2.000000  2.000000  2.000000
                       2.000000  2.000000  2.000000  2.000000  2.000000  2.000000
                       2.000000  2.000000  2.000000  2.000000  2.000000  2.000000
                       2.000000  2.000000  2.000000  2.000000  2.000000  2.000000
                       2.000000  2.000000  2.000000  2.000000  2.000000  2.000000
                       2.000000  2.000000  2.000000  2.000000  2.000000  2.000000
                       2.000000  2.000000  2.000000  2.000000  2.000000  2.000000
                       2.000000  2.000000  2.000000  2.000000  2.000000  2.000000
                       2.000000  2.000000  2.000000  2.000000  2.000000  2.000000
                       2.000000  2.000000  2.000000  2.000000  2.000000  2.000000
                       2.000000  2.000000  2.000000  2.000000  2.000000  2.000000
                       2.000000  2.000000  2.000000  2.000000  2.000000  2.000000
                       2.000000  2.000000  2.000000  2.000000  2.000000  2.000000
                       2.000000  2.000000  2.000000  2.000000  2.000000  2.000000
                       2.000000  2.000000  2.000000  2.000000  2.000000  2.000000
                       2.000000  2.000000  2.000000  2.000000  2.000000  2.000000
                       2.000000  2.000000  2.000000  2.000000  2.000000  2.000000
                       2.000000  2.000000  2.000000  2.000000  2.000000  2.000000
                       2.000000  2.000000  2.000000  2.000000  2.000000  2.000000
                       2.000000  2.000000  2.000000  2.000000  2.000000  2.000000
                       2.000000  2.000000  2.000000  2.000000  2.000000  2.000000
                       2.000000  2.000000  2.000000  2.000000  2.000000  2.000000
                       2.000000  2.000000  2.000000  2.000000  2.000000  2.000000
                       2.000000  2.000000  2.000000  2.000000  2.000000  2.000000
                       2.000000  2.000000  2.000000  2.000000  0.000000  0.000000
                       0.000000  0.000000  0.000000  0.000000  0.000000  0.000000
                       0.000000  0.000000
        optforces           1
           ortalg          -2
        paral_kgb           1
            prtwf           0
            rprim      2.0000000000E+00  0.0000000000E+00  0.0000000000E+00
                       0.0000000000E+00  5.6568600495E+00  0.0000000000E+00
                       0.0000000000E+00  0.0000000000E+00  1.4142150124E+00
           shiftk      5.00000000E-01  5.00000000E-01  5.00000000E-01
          spgroup          55
           symrel      1  0  0   0  1  0   0  0  1      -1  0  0   0 -1  0   0  0 -1
                      -1  0  0   0  1  0   0  0 -1       1  0  0   0 -1  0   0  0  1
                      -1  0  0   0 -1  0   0  0  1       1  0  0   0  1  0   0  0 -1
                       1  0  0   0 -1  0   0  0 -1      -1  0  0   0  1  0   0  0  1
            tnons      0.0000000  0.0000000  0.0000000     0.0000000 -0.1250000  0.5000000
                       0.0000000  0.5000000  0.0000000     0.0000000  0.3750000  0.5000000
                       0.0000000  0.3750000  0.5000000     0.0000000  0.5000000  0.0000000
                       0.0000000 -0.1250000  0.5000000     0.0000000  0.0000000  0.0000000
           toldff      5.00000000E-06
            typat      1  1  1  1  1  1  1  1  1  1  1  1  1  1  1  1  2  2  2  2
                       2  2  2  2  2  2  2  2  2  2  2  2  3  3  3  3  3  3  3  3
                       3  3  3  3  3  3  3  3  3  3  3  3  3  3  3  3  3  3  3  3
                       3  3  3  3  3  3  3  3  3  3  3  3  3  3  3  3  3  3  3  3
         wfoptalg         114
              wtk        0.16667    0.16667    0.16667    0.16667    0.16667    0.16667
           xangst      0.0000000000E+00  7.1736450618E-02  2.3648994384E-01
                       0.0000000000E+00  2.8434080868E+00  3.1630995377E+00
                       4.0978953856E+00 -7.4995174557E-02  1.9229881718E-01
                       4.0978953856E+00  2.9521555702E+00  3.1594782654E+00
                       0.0000000000E+00  5.8495496733E+00  2.6544695093E-01
                       0.0000000000E+00  8.6212213097E+00  3.1341425306E+00
                       4.0978953856E+00  5.7408021900E+00  2.6182567868E-01
                       4.0978953856E+00  8.7679529349E+00  3.0899514039E+00
                       0.0000000000E+00  1.1662346798E+01 -2.3648994384E-01
                       0.0000000000E+00  1.4434018434E+01  2.6322056358E+00
                       4.0978953856E+00  1.1515615172E+01 -1.9229881718E-01
                       4.0978953856E+00  1.4542765917E+01  2.6358269080E+00
                       0.0000000000E+00  1.7440160020E+01 -2.6544695093E-01
                       0.0000000000E+00  2.0211831657E+01  2.6611626429E+00
                       4.0978953856E+00  1.7331412537E+01 -2.6182567868E-01
                       4.0978953856E+00  2.0358563282E+01  2.7053537696E+00
                       2.0552321259E+00  2.9263003301E-03  2.9443136944E+00
                       2.0522210862E+00  2.8995174137E+00  5.3603346549E-02
                       6.1405586453E+00  2.9263003301E-03  2.9443136944E+00
                       6.1435696850E+00  2.8995174137E+00  5.3603346549E-02
                       2.0522210862E+00  5.7934403465E+00  2.9512559333E+00
                       2.0552321259E+00  8.6900314600E+00  4.6661107687E-02
                       6.1435696850E+00  5.7934403465E+00  2.9512559333E+00
[...]
                       4.0978953856E+00  1.4519789472E+01  2.6086190892E+00
                       0.0000000000E+00  1.7418175678E+01 -2.9609635216E-01
                       0.0000000000E+00  2.0223894004E+01  2.6547098753E+00
                       4.0978953856E+00  1.7354388982E+01 -2.8903349753E-01
                       4.0978953856E+00  2.0343981011E+01  2.6623696648E+00
                       2.0561336145E+00 -5.4471904446E-03  2.9471699595E+00
                       2.0542334780E+00  2.8958199480E+00  5.6781343181E-02
                       6.1396571567E+00 -5.4471904446E-03  2.9471699595E+00
                       6.1415572932E+00  2.8958199480E+00  5.6781343181E-02
                       2.0542334780E+00  5.7971378124E+00  2.9544339299E+00
                       2.0561336145E+00  8.6984049508E+00  4.9517372784E-02
                       6.1415572932E+00  5.7971378124E+00  2.9544339299E+00
                       6.1396571567E+00  8.6984049508E+00  4.9517372784E-02
                       2.0561336145E+00  1.1585163156E+01  2.8481352139E+00
                       2.0542334780E+00  1.4486430295E+01 -5.6781343181E-02
                       6.1396571567E+00  1.1585163156E+01  2.8481352139E+00
                       6.1415572932E+00  1.4486430295E+01 -5.6781343181E-02
                       2.0542334780E+00  1.7387748159E+01  2.8408712435E+00
                       2.0561336145E+00  2.0289015298E+01 -4.9517372784E-02
                       6.1415572932E+00  1.7387748159E+01  2.8408712435E+00
                       6.1396571567E+00  2.0289015298E+01 -4.9517372784E-02
                       0.0000000000E+00 -3.7651313062E-01  2.6515005996E+00
                       0.0000000000E+00  3.2378444852E+00 -1.7169526536E-01
                       1.7870716661E+00  1.3402614666E+00  1.3091704276E+00
                       1.7556082459E+00  1.5465386295E+00  4.2216261935E+00
                       2.3099326152E+00 -1.4488262933E+00  4.3464788801E+00
                       2.4449995031E+00 -1.4488262933E+00  1.4488262934E+00
                       4.0978953856E+00  3.9366726968E-01  2.7849980543E+00
                       4.0978953856E+00  2.5375199555E+00 -1.8824441611E-01
                       6.4087191051E+00  1.3402614666E+00  1.3091704276E+00
                       6.4401825253E+00  1.5465386295E+00  4.2216261935E+00
                       5.8858581560E+00 -1.4488262933E+00  4.3464788801E+00
                       5.7507912681E+00 -1.4488262933E+00  1.4488262934E+00
                       0.0000000000E+00  5.4551132752E+00  2.7259573214E+00
                       0.0000000000E+00  9.0694708910E+00 -2.4615198708E-01
                       1.7556082459E+00  7.1464191308E+00  1.3239736068E+00
                       1.7870716661E+00  7.3526962938E+00  4.2068230143E+00
                       2.3286312899E+00  4.3140576332E+00  4.2801242877E+00
                       2.3286312899E+00  4.3789001271E+00  1.3824717010E+00
                       4.0978953856E+00  6.1554378049E+00  2.7094081706E+00
                       4.0978953856E+00  8.2992904907E+00 -1.1265453239E-01
                       6.4401825253E+00  7.1464191308E+00  1.3239736068E+00
                       6.4087191051E+00  7.3526962938E+00  4.2068230143E+00
                       5.8671594813E+00  4.3140576332E+00  4.2801242877E+00
                       5.8671594813E+00  4.3789001271E+00  1.3824717010E+00
                       0.0000000000E+00  1.1214097216E+01  3.1438045738E+00
                       0.0000000000E+00  1.4828454832E+01  1.7169526536E-01
                       1.7556082459E+00  1.3137148976E+01  1.5736789799E+00
                       1.7870716661E+00  1.2930871813E+01  4.4861347459E+00
                       2.4449995031E+00  1.0141784054E+01  4.3464788801E+00
[...]
                       6.4087191051E+00  1.2930871813E+01  4.4861347459E+00
                       5.7507912681E+00  1.0141784054E+01  4.3464788801E+00
                       5.8858581560E+00  1.0141784054E+01  1.4488262934E+00
                       0.0000000000E+00  1.7045723622E+01  3.0693478521E+00
                       0.0000000000E+00  2.0660081238E+01  2.4615198708E-01
                       1.7870716661E+00  1.8943306641E+01  1.5884821591E+00
                       1.7556082459E+00  1.8737029478E+01  4.4713315666E+00
                       2.3286312899E+00  1.5969510474E+01  4.4128334725E+00
                       2.3286312899E+00  1.5904667980E+01  1.5151808858E+00
                       4.0978953856E+00  1.7746048152E+01  3.0858970028E+00
                       4.0978953856E+00  1.9889900838E+01  1.1265453239E-01
                       6.4087191051E+00  1.8943306641E+01  1.5884821591E+00
                       6.4401825253E+00  1.8737029478E+01  4.4713315666E+00
                       5.8671594813E+00  1.5969510474E+01  4.4128334725E+00
                       5.8671594813E+00  1.5904667980E+01  1.5151808858E+00
            xcart      0.0000000000E+00  1.1276771210E-01  4.5909519065E-01
                       0.0000000000E+00  5.4148069537E+00  6.0353108317E+00
                       7.7439000000E+00 -1.1416384281E-01  4.4462028623E-01
                       7.7439000000E+00  5.5353463404E+00  6.0219639707E+00
                       0.0000000000E+00  1.1012502498E+01  5.5954101453E-01
                       0.0000000000E+00  1.6314541740E+01  5.9348650078E+00
                       7.7439000000E+00  1.0891963111E+01  5.4619415356E-01
                       7.7439000000E+00  1.6541473295E+01  5.9203901034E+00
                       0.0000000000E+00  2.2015846981E+01 -4.5909519065E-01
                       0.0000000000E+00  2.7317886222E+01  4.9162288026E+00
                       7.7439000000E+00  2.1788915426E+01 -4.4462028623E-01
                       7.7439000000E+00  2.7438425609E+01  4.9295756636E+00
                       0.0000000000E+00  3.2915581767E+01 -5.5954101453E-01
                       0.0000000000E+00  3.8217621008E+01  5.0166746265E+00
                       7.7439000000E+00  3.2795042380E+01 -5.4619415356E-01
                       7.7439000000E+00  3.8444552563E+01  5.0311495309E+00
                       3.8855294240E+00 -1.0293698134E-02  5.5693440905E+00
                       3.8819386864E+00  5.4723066319E+00  1.0730118807E-01
                       1.1602270576E+01 -1.0293698134E-02  5.5693440905E+00
                       1.1605861314E+01  5.4723066319E+00  1.0730118807E-01
                       3.8819386864E+00  1.0955002820E+01  5.5830710052E+00
                       3.8855294240E+00  1.6437603150E+01  9.3574273382E-02
                       1.1605861314E+01  1.0955002820E+01  5.5830710052E+00
                       1.1602270576E+01  1.6437603150E+01  9.3574273382E-02
                       3.8855294240E+00  2.1892785570E+01  5.3821955438E+00
                       3.8819386864E+00  2.7375385900E+01 -1.0730118807E-01
                       1.1602270576E+01  2.1892785570E+01  5.3821955438E+00
                       1.1605861314E+01  2.7375385900E+01 -1.0730118807E-01
                       3.8819386864E+00  3.2858082089E+01  5.3684686291E+00
                       3.8855294240E+00  3.8340682419E+01 -9.3574273382E-02
                       1.1605861314E+01  3.2858082089E+01  5.3684686291E+00
                       1.1602270576E+01  3.8340682419E+01 -9.3574273382E-02
                       0.0000000000E+00 -7.1150670231E-01  5.0106099745E+00
                       0.0000000000E+00  6.1186393378E+00 -3.2445702983E-01
                       3.3770760288E+00  2.5327271182E+00  2.4739735694E+00
                       3.3176187814E+00  2.9225344638E+00  7.9777173412E+00
                       4.3651400282E+00 -2.7378849084E+00  8.2136547257E+00
                       4.6203794558E+00 -2.7378849084E+00  2.7378849086E+00
                       7.7439000000E+00  7.4392332717E-01  5.2628836033E+00
                       7.7439000000E+00  4.7952177726E+00 -3.5573039249E-01
                       1.2110723971E+01  2.5327271182E+00  2.4739735694E+00
                       1.2170181219E+01  2.9225344638E+00  7.9777173412E+00
                       1.1122659972E+01 -2.7378849084E+00  8.2136547257E+00
                       1.0867420544E+01 -2.7378849084E+00  2.7378849086E+00
                       0.0000000000E+00  1.0308670114E+01  5.1513127873E+00
                       0.0000000000E+00  1.7138816154E+01 -4.6515984264E-01
                       3.3176187814E+00  1.3504774988E+01  2.5019475241E+00
                       3.3770760288E+00  1.3894582334E+01  7.9497433866E+00
                       4.4004754025E+00  8.1523874483E+00  8.0882627184E+00
                       4.4004754025E+00  8.2749220035E+00  2.6124929013E+00
                       7.7439000000E+00  1.1632091679E+01  5.1200394247E+00
                       7.7439000000E+00  1.5683386125E+01 -2.1288621385E-01
                       1.2170181219E+01  1.3504774988E+01  2.5019475241E+00
                       1.2110723971E+01  1.3894582334E+01  7.9497433866E+00
                       1.1087324598E+01  8.1523874483E+00  8.0882627184E+00
                       1.1087324598E+01  8.2749220035E+00  2.6124929013E+00
                       0.0000000000E+00  2.1191572566E+01  5.9409296598E+00
                       0.0000000000E+00  2.8021718606E+01  3.2445702983E-01
                       3.3176187814E+00  2.4825613732E+01  2.9738222931E+00
                       3.3770760288E+00  2.4435806387E+01  8.4775660649E+00
                       4.6203794558E+00  1.9165194360E+01  8.2136547257E+00
[...]
                       1.2110723971E+01  2.4435806387E+01  8.4775660649E+00
                       1.0867420544E+01  1.9165194360E+01  8.2136547257E+00
                       1.1122659972E+01  1.9165194360E+01  2.7378849086E+00
                       0.0000000000E+00  3.2211749383E+01  5.8002268470E+00
                       0.0000000000E+00  3.9041895423E+01  4.6515984264E-01
                       3.3770760288E+00  3.5797661602E+01  3.0017962477E+00
                       3.3176187814E+00  3.5407854257E+01  8.4495921103E+00
                       4.4004754025E+00  3.0178001272E+01  8.3390467330E+00
                       4.4004754025E+00  3.0055466717E+01  2.8632769159E+00
                       7.7439000000E+00  3.3535170948E+01  5.8315002096E+00
                       7.7439000000E+00  3.7586465393E+01  2.1288621385E-01
                       1.2110723971E+01  3.5797661602E+01  3.0017962477E+00
                       1.2170181219E+01  3.5407854257E+01  8.4495921103E+00
                       1.1087324598E+01  3.0178001272E+01  8.3390467330E+00
                       1.1087324598E+01  3.0055466717E+01  2.8632769159E+00
             xred      0.0000000000E+00  2.5742433454E-03  4.1920607145E-02
                       0.0000000000E+00  1.2360834948E-01  5.5109245213E-01
                       5.0000000000E-01 -2.6061139945E-03  4.0598883908E-02
                       5.0000000000E-01  1.2636000337E-01  5.4987373208E-01
                       0.0000000000E+00  2.5139165053E-01  5.1092452131E-02
                       0.0000000000E+00  3.7242575666E-01  5.4192060715E-01
                       5.0000000000E-01  2.4863999664E-01  4.9873732078E-02
                       5.0000000000E-01  3.7760611400E-01  5.4059888391E-01
                       0.0000000000E+00  5.0257424335E-01 -4.1920607145E-02
                       0.0000000000E+00  6.2360834948E-01  4.4890754787E-01
                       5.0000000000E-01  4.9739388601E-01 -4.0598883908E-02
                       5.0000000000E-01  6.2636000337E-01  4.5012626792E-01
                       0.0000000000E+00  7.5139165053E-01 -5.1092452131E-02
                       0.0000000000E+00  8.7242575666E-01  4.5807939285E-01
                       5.0000000000E-01  7.4863999664E-01 -4.9873732078E-02
                       5.0000000000E-01  8.7760611400E-01  4.5940111609E-01
                       2.5087678198E-01 -2.3498289916E-04  5.0854439435E-01
                       2.5064493901E-01  1.2492094296E-01  9.7978176268E-03
                       7.4912321802E-01 -2.3498289916E-04  5.0854439435E-01
                       7.4935506099E-01  1.2492094296E-01  9.7978176268E-03
                       2.5064493901E-01  2.5007905705E-01  5.0979781763E-01
                       2.5087678198E-01  3.7523498291E-01  8.5443943506E-03
                       7.4935506099E-01  2.5007905705E-01  5.0979781763E-01
                       7.4912321802E-01  3.7523498291E-01  8.5443943506E-03
                       2.5087678198E-01  4.9976501710E-01  4.9145560565E-01
                       2.5064493901E-01  6.2492094296E-01 -9.7978176268E-03
                       7.4912321802E-01  4.9976501710E-01  4.9145560565E-01
                       7.4935506099E-01  6.2492094296E-01 -9.7978176268E-03
                       2.5064493901E-01  7.5007905705E-01  4.9020218237E-01
                       2.5087678198E-01  8.7523498291E-01 -8.5443943506E-03
                       7.4935506099E-01  7.5007905705E-01  4.9020218237E-01
                       7.4912321802E-01  8.7523498291E-01 -8.5443943506E-03
                       0.0000000000E+00 -1.6242161515E-02  4.5752562122E-01
                       0.0000000000E+00  1.3967532288E-01 -2.9626613304E-02
                       2.1804749731E-01  5.7816690685E-02  2.2590189617E-01
                       2.1420852422E-01  6.6715150594E-02  7.2845623607E-01
                       2.8184377563E-01 -6.2499999996E-02  7.5000000000E-01
                       2.9832380685E-01 -6.2499999996E-02  2.5000000000E-01
                       5.0000000000E-01  1.6982163057E-02  4.8056106986E-01
                       5.0000000000E-01  1.0946446648E-01 -3.2482226643E-02
                       7.8195250269E-01  5.7816690685E-02  2.2590189617E-01
                       7.8579147578E-01  6.6715150594E-02  7.2845623607E-01
                       7.1815622437E-01 -6.2499999996E-02  7.5000000000E-01
                       7.0167619315E-01 -6.2499999996E-02  2.5000000000E-01
                       0.0000000000E+00  2.3532467713E-01  4.7037338670E-01
                       0.0000000000E+00  3.9124216152E-01 -4.2474378779E-02
                       2.1420852422E-01  3.0828484941E-01  2.2845623607E-01
                       2.1804749731E-01  3.1718330932E-01  7.2590189617E-01
                       2.8412527295E-01  1.8610140036E-01  7.3855028503E-01
                       2.8412527295E-01  1.8889859964E-01  2.3855028503E-01
                       5.0000000000E-01  2.6553553353E-01  4.6751777336E-01
                       5.0000000000E-01  3.5801783695E-01 -1.9438930138E-02
                       7.8579147578E-01  3.0828484941E-01  2.2845623607E-01
                       7.8195250269E-01  3.1718330932E-01  7.2590189617E-01
                       7.1587472705E-01  1.8610140036E-01  7.3855028503E-01
                       7.1587472705E-01  1.8889859964E-01  2.3855028503E-01
                       0.0000000000E+00  4.8375783848E-01  5.4247437878E-01
                       0.0000000000E+00  6.3967532288E-01  2.9626613304E-02
                       2.1420852422E-01  5.6671515059E-01  2.7154376393E-01
                       2.1804749731E-01  5.5781669068E-01  7.7409810383E-01
                       2.9832380685E-01  4.3750000000E-01  7.5000000000E-01
[...]
                       7.8195250269E-01  5.5781669068E-01  7.7409810383E-01
                       7.0167619315E-01  4.3750000000E-01  7.5000000000E-01
                       7.1815622437E-01  4.3750000000E-01  2.5000000000E-01
                       0.0000000000E+00  7.3532467713E-01  5.2962661330E-01
                       0.0000000000E+00  8.9124216152E-01  4.2474378779E-02
                       2.1804749731E-01  8.1718330932E-01  2.7409810383E-01
                       2.1420852422E-01  8.0828484941E-01  7.7154376393E-01
                       2.8412527295E-01  6.8889859964E-01  7.6144971497E-01
                       2.8412527295E-01  6.8610140036E-01  2.6144971497E-01
                       5.0000000000E-01  7.6553553353E-01  5.3248222664E-01
                       5.0000000000E-01  8.5801783695E-01  1.9438930138E-02
                       7.8195250269E-01  8.1718330932E-01  2.7409810383E-01
                       7.8579147578E-01  8.0828484941E-01  7.7154376393E-01
                       7.1587472705E-01  6.8889859964E-01  7.6144971497E-01
                       7.1587472705E-01  6.8610140036E-01  2.6144971497E-01
            znucl       82.00000   40.00000    8.00000

- Timing analysis has been suppressed with timopt=0

 Suggested references for the acknowledgment of ABINIT usage.

 Calculation completed.
.Delivered   3 WARNINGs and   0 COMMENTs to log file.