.Version 8.0.8 of ABINIT

 ABINIT is a project of the Universite Catholique de Louvain,
 Corning Inc. and other collaborators, see ~abinit/doc/developers/contributors.txt .
 Please read ~abinit/doc/users/acknowledgments.html for suggested
 acknowledgments of the ABINIT effort.

.Starting date : Thu 21 Jul 2016.
- ( at 18h22 )

- input  file    -> inputs/ir-eos_LDApaw8.in
- output file    -> outputs/ir-eos_LDApaw8.out
- root for input  files -> io_xo/ir-eos_LDApaw8_io
- root for output files -> io_xo/ir-eos_LDApaw8_xo

 DATASET    1 : space group Pm -3 m (#221); Bravais cP (primitive cubic)
     intxc =       0    ionmov =       0      iscf =      17    lmnmax =      18
     lnmax =       6     mgfft =      30  mpssoang =       3    mqgrid =    3001
     natom =       8  nloc_mem =       2    nspden =       1   nspinor =       1
    nsppol =       1      nsym =      48    n1xccc =       1    ntypat =       3
    occopt =       4   xclevel =       1
-    mband =          40        mffmem =           1         mkmem =           4
       mpw =        1390          nfft =       27000          nkpt =          56
Pmy_natom=         1
 PAW method is used; the additional fine FFT grid is defined by:
   mgfftf=        48    nfftf =    110592
  Rough estimation (10% accuracy) of disk space for files :

 DATASET    2 : space group Pm -3 m (#221); Bravais cP (primitive cubic)
     intxc =       0    ionmov =       0      iscf =      -2    lmnmax =      18
     lnmax =       6     mgfft =      30  mpssoang =       3    mqgrid =    3001
     natom =       8  nloc_mem =       2    nspden =       1   nspinor =       1
    nsppol =       1      nsym =      48    n1xccc =       1    ntypat =       3
    occopt =       4   xclevel =       1
-    mband =          40        mffmem =           1         mkmem =           4
       mpw =        1390          nfft =       27000          nkpt =          56
Pmy_natom=         1
 PAW method is used; the additional fine FFT grid is defined by:
   mgfftf=        48    nfftf =    110592
  Rough estimation (10% accuracy) of disk space for files :

 DATASET    4 : space group Pm -3 m (#221); Bravais cP (primitive cubic)
     intxc =       0      iscf =       7    lmnmax =      18     lnmax =       6
     mgfft =      30  mpssoang =       3    mqgrid =    3001     natom =       8
  nloc_mem =       2    nspden =       1   nspinor =       1    nsppol =       1
      nsym =      48    n1xccc =       1    ntypat =       3    occopt =       4
   xclevel =       1
-    mband =          40        mffmem =           1         mkmem =          54
-   mkqmem =          54        mk1mem =          54           mpw =        1390
      nfft =       27000          nkpt =         864
Pmy_natom=         1
  Rough estimation (10% accuracy) of disk space for files :

------------- Echo of variables that govern the present computation ------------
-
- outvars: echo of selected default values
-   iomode0 =  0 , fftalg0 =112 , wfoptalg0 = 10
-
- outvars: echo of global parameters not present in the input file
-  max_nthreads =    0
-
 -outvars: echo values of preprocessed input variables --------
            acell      7.9922501126E+00  7.9922501126E+00  7.9922501126E+00 Bohr
              amu      4.78800000E+01  1.40067400E+01  1.08110000E+01
           diemac      2.00000000E+01
             ecut      1.46997302E+01 Hartree
-          fftalg         112
           getden1          0
           getden2          1
           getden4          0
           getwfk1          0
           getwfk2          1
           getwfk4          2
             iscf1         17
             iscf2         -2
             iscf4          7
              ixc           2
           jdtset        1    2    4
              kpt1     4.16666667E-02  4.16666667E-02  4.16666667E-02
                       1.25000000E-01  4.16666667E-02  4.16666667E-02
                       2.08333333E-01  4.16666667E-02  4.16666667E-02
                       2.91666667E-01  4.16666667E-02  4.16666667E-02
                       3.75000000E-01  4.16666667E-02  4.16666667E-02
                       4.58333333E-01  4.16666667E-02  4.16666667E-02
                       1.25000000E-01  1.25000000E-01  4.16666667E-02
                       2.08333333E-01  1.25000000E-01  4.16666667E-02
                       2.91666667E-01  1.25000000E-01  4.16666667E-02
                       3.75000000E-01  1.25000000E-01  4.16666667E-02
                       4.58333333E-01  1.25000000E-01  4.16666667E-02
                       2.08333333E-01  2.08333333E-01  4.16666667E-02
                       2.91666667E-01  2.08333333E-01  4.16666667E-02
                       3.75000000E-01  2.08333333E-01  4.16666667E-02
                       4.58333333E-01  2.08333333E-01  4.16666667E-02
                       2.91666667E-01  2.91666667E-01  4.16666667E-02
                       3.75000000E-01  2.91666667E-01  4.16666667E-02
                       4.58333333E-01  2.91666667E-01  4.16666667E-02
                       3.75000000E-01  3.75000000E-01  4.16666667E-02
                       4.58333333E-01  3.75000000E-01  4.16666667E-02
                       4.58333333E-01  4.58333333E-01  4.16666667E-02
                       1.25000000E-01  1.25000000E-01  1.25000000E-01
                       2.08333333E-01  1.25000000E-01  1.25000000E-01
                       2.91666667E-01  1.25000000E-01  1.25000000E-01
                       3.75000000E-01  1.25000000E-01  1.25000000E-01
                       4.58333333E-01  1.25000000E-01  1.25000000E-01
                       2.08333333E-01  2.08333333E-01  1.25000000E-01
                       2.91666667E-01  2.08333333E-01  1.25000000E-01
                       3.75000000E-01  2.08333333E-01  1.25000000E-01
                       4.58333333E-01  2.08333333E-01  1.25000000E-01
                       2.91666667E-01  2.91666667E-01  1.25000000E-01
                       3.75000000E-01  2.91666667E-01  1.25000000E-01
                       4.58333333E-01  2.91666667E-01  1.25000000E-01
                       3.75000000E-01  3.75000000E-01  1.25000000E-01
                       4.58333333E-01  3.75000000E-01  1.25000000E-01
                       4.58333333E-01  4.58333333E-01  1.25000000E-01
                       2.08333333E-01  2.08333333E-01  2.08333333E-01
                       2.91666667E-01  2.08333333E-01  2.08333333E-01
                       3.75000000E-01  2.08333333E-01  2.08333333E-01
                       4.58333333E-01  2.08333333E-01  2.08333333E-01
                       2.91666667E-01  2.91666667E-01  2.08333333E-01
                       3.75000000E-01  2.91666667E-01  2.08333333E-01
                       4.58333333E-01  2.91666667E-01  2.08333333E-01
                       3.75000000E-01  3.75000000E-01  2.08333333E-01
                       4.58333333E-01  3.75000000E-01  2.08333333E-01
                       4.58333333E-01  4.58333333E-01  2.08333333E-01
                       2.91666667E-01  2.91666667E-01  2.91666667E-01
                       3.75000000E-01  2.91666667E-01  2.91666667E-01
                       4.58333333E-01  2.91666667E-01  2.91666667E-01
                       3.75000000E-01  3.75000000E-01  2.91666667E-01
              kpt2     4.16666667E-02  4.16666667E-02  4.16666667E-02
                       1.25000000E-01  4.16666667E-02  4.16666667E-02
                       2.08333333E-01  4.16666667E-02  4.16666667E-02
                       2.91666667E-01  4.16666667E-02  4.16666667E-02
                       3.75000000E-01  4.16666667E-02  4.16666667E-02
                       4.58333333E-01  4.16666667E-02  4.16666667E-02
                       1.25000000E-01  1.25000000E-01  4.16666667E-02
                       2.08333333E-01  1.25000000E-01  4.16666667E-02
                       2.91666667E-01  1.25000000E-01  4.16666667E-02
                       3.75000000E-01  1.25000000E-01  4.16666667E-02
                       4.58333333E-01  1.25000000E-01  4.16666667E-02
                       2.08333333E-01  2.08333333E-01  4.16666667E-02
                       2.91666667E-01  2.08333333E-01  4.16666667E-02
                       3.75000000E-01  2.08333333E-01  4.16666667E-02
                       4.58333333E-01  2.08333333E-01  4.16666667E-02
                       2.91666667E-01  2.91666667E-01  4.16666667E-02
                       3.75000000E-01  2.91666667E-01  4.16666667E-02
                       4.58333333E-01  2.91666667E-01  4.16666667E-02
                       3.75000000E-01  3.75000000E-01  4.16666667E-02
                       4.58333333E-01  3.75000000E-01  4.16666667E-02
                       4.58333333E-01  4.58333333E-01  4.16666667E-02
                       1.25000000E-01  1.25000000E-01  1.25000000E-01
                       2.08333333E-01  1.25000000E-01  1.25000000E-01
                       2.91666667E-01  1.25000000E-01  1.25000000E-01
                       3.75000000E-01  1.25000000E-01  1.25000000E-01
                       4.58333333E-01  1.25000000E-01  1.25000000E-01
                       2.08333333E-01  2.08333333E-01  1.25000000E-01
                       2.91666667E-01  2.08333333E-01  1.25000000E-01
                       3.75000000E-01  2.08333333E-01  1.25000000E-01
                       4.58333333E-01  2.08333333E-01  1.25000000E-01
                       2.91666667E-01  2.91666667E-01  1.25000000E-01
                       3.75000000E-01  2.91666667E-01  1.25000000E-01
                       4.58333333E-01  2.91666667E-01  1.25000000E-01
                       3.75000000E-01  3.75000000E-01  1.25000000E-01
                       4.58333333E-01  3.75000000E-01  1.25000000E-01
                       4.58333333E-01  4.58333333E-01  1.25000000E-01
                       2.08333333E-01  2.08333333E-01  2.08333333E-01
                       2.91666667E-01  2.08333333E-01  2.08333333E-01
                       3.75000000E-01  2.08333333E-01  2.08333333E-01
                       4.58333333E-01  2.08333333E-01  2.08333333E-01
                       2.91666667E-01  2.91666667E-01  2.08333333E-01
                       3.75000000E-01  2.91666667E-01  2.08333333E-01
                       4.58333333E-01  2.91666667E-01  2.08333333E-01
                       3.75000000E-01  3.75000000E-01  2.08333333E-01
                       4.58333333E-01  3.75000000E-01  2.08333333E-01
                       4.58333333E-01  4.58333333E-01  2.08333333E-01
                       2.91666667E-01  2.91666667E-01  2.91666667E-01
                       3.75000000E-01  2.91666667E-01  2.91666667E-01
                       4.58333333E-01  2.91666667E-01  2.91666667E-01
                       3.75000000E-01  3.75000000E-01  2.91666667E-01
              kpt4     4.16666667E-02  4.16666667E-02  4.16666667E-02
                       1.25000000E-01  4.16666667E-02  4.16666667E-02
                       2.08333333E-01  4.16666667E-02  4.16666667E-02
                       2.91666667E-01  4.16666667E-02  4.16666667E-02
                       3.75000000E-01  4.16666667E-02  4.16666667E-02
                       4.58333333E-01  4.16666667E-02  4.16666667E-02
[...]
                       0.000000  0.000000  0.000000  0.000000
                       2.000000  2.000000  2.000000  2.000000  2.000000  2.000000
                       2.000000  2.000000  2.000000  2.000000  2.000000  2.000000
                       2.000000  2.000000  2.000000  2.000000  2.000000  2.000000
                       2.000000  2.000000  2.000000  2.000000  2.000000  2.000000
                       2.000000  2.000000  2.000000  2.000000  2.000000  2.000000
                       2.000000  2.000000  2.138123  2.113038  1.962564  0.666263
                       0.000659  0.000000  0.000000  0.000000
                       2.000000  2.000000  2.000000  2.000000  2.000000  2.000000
                       2.000000  2.000000  2.000000  2.000000  2.000000  2.000000
                       2.000000  2.000000  2.000000  2.000000  2.000000  2.000000
                       2.000000  2.000000  2.000000  2.000000  2.000000  2.000000
                       2.000000  2.000000  2.000000  2.000000  2.000000  2.000000
                       2.000000  2.000000  2.000123  2.137088  1.578790  0.456889
                       0.000024  0.000000  0.000000  0.000000
                       2.000000  2.000000  2.000000  2.000000  2.000000  2.000000
                       2.000000  2.000000  2.000000  2.000000  2.000000  2.000000
                       2.000000  2.000000  2.000000  2.000000  2.000000  2.000000
                       2.000000  2.000000  2.000000  2.000000  2.000000  2.000000
                       2.000000  2.000000  2.000000  2.000000  2.000000  2.000000
[...]
                       0.000000  0.000000  0.000000  0.000000
                       2.000000  2.000000  2.000000  2.000000  2.000000  2.000000
                       2.000000  2.000000  2.000000  2.000000  2.000000  2.000000
                       2.000000  2.000000  2.000000  2.000000  2.000000  2.000000
                       2.000000  2.000000  2.000000  2.000000  2.000000  2.000000
                       2.000000  2.000000  2.000000  2.000000  2.000000  2.000000
                       2.000000  2.000000  0.000868  0.000000  0.000000  0.000000
                       0.000000  0.000000  0.000000  0.000000
                       2.000000  2.000000  2.000000  2.000000  2.000000  2.000000
                       2.000000  2.000000  2.000000  2.000000  2.000000  2.000000
                       2.000000  2.000000  2.000000  2.000000  2.000000  2.000000
                       2.000000  2.000000  2.000000  2.000000  2.000000  2.000000
                       2.000000  2.000000  2.000000  2.000000  2.000000  2.000000
                       2.000000  2.000000  0.000000  0.000000  0.000000  0.000000
                       0.000000  0.000000  0.000000  0.000000
                       prtocc : prtvol=0, do not print more k-points.
              occ4     2.000000  2.000000  2.000000  2.000000  2.000000  2.000000
                       2.000000  2.000000  2.000000  2.000000  2.000000  2.000000
                       2.000000  2.000000  2.000000  2.000000  2.000000  2.000000
                       2.000000  2.000000  2.000000  2.000000  2.000000  2.000000
                       2.000000  2.000000  2.000000  2.000000  2.000000  2.000000
                       2.000000  2.000000  2.048666  1.861844  1.861844  0.000132
                       0.000132  0.000000  0.000000  0.000000
                       2.000000  2.000000  2.000000  2.000000  2.000000  2.000000
                       2.000000  2.000000  2.000000  2.000000  2.000000  2.000000
                       2.000000  2.000000  2.000000  2.000000  2.000000  2.000000
                       2.000000  2.000000  2.000000  2.000000  2.000000  2.000000
                       2.000000  2.000000  2.000000  2.000000  2.000000  2.000000
                       2.000000  2.000000  2.141479  1.783725  1.763845  0.303745
                       0.000028  0.000000  0.000000  0.000000
                       2.000000  2.000000  2.000000  2.000000  2.000000  2.000000
                       2.000000  2.000000  2.000000  2.000000  2.000000  2.000000
                       2.000000  2.000000  2.000000  2.000000  2.000000  2.000000
                       2.000000  2.000000  2.000000  2.000000  2.000000  2.000000
                       2.000000  2.000000  2.000000  2.000000  2.000000  2.000000
                       2.000000  2.000000  2.000671  2.073929  1.186633  0.819213
                       0.000001  0.000000  0.000000  0.000000
                       2.000000  2.000000  2.000000  2.000000  2.000000  2.000000
                       2.000000  2.000000  2.000000  2.000000  2.000000  2.000000
                       2.000000  2.000000  2.000000  2.000000  2.000000  2.000000
                       2.000000  2.000000  2.000000  2.000000  2.000000  2.000000
                       2.000000  2.000000  2.000000  2.000000  2.000000  2.000000
                       2.000000  2.000000  2.000000  2.009602  0.019216  0.003504
                       0.000000  0.000000  0.000000  0.000000
                       2.000000  2.000000  2.000000  2.000000  2.000000  2.000000
                       2.000000  2.000000  2.000000  2.000000  2.000000  2.000000
                       2.000000  2.000000  2.000000  2.000000  2.000000  2.000000
                       2.000000  2.000000  2.000000  2.000000  2.000000  2.000000
                       2.000000  2.000000  2.000000  2.000000  2.000000  2.000000
                       2.000000  2.000000  2.000001  2.001150  0.000713  0.000468
                       0.000000  0.000000  0.000000  0.000000
                       2.000000  2.000000  2.000000  2.000000  2.000000  2.000000
                       2.000000  2.000000  2.000000  2.000000  2.000000  2.000000
                       2.000000  2.000000  2.000000  2.000000  2.000000  2.000000
                       2.000000  2.000000  2.000000  2.000000  2.000000  2.000000
                       2.000000  2.000000  2.000000  2.000000  2.000000  2.000000
                       2.000000  2.000000  2.000001  2.000414  0.000000  0.000000
                       0.000000  0.000000  0.000000  0.000000
                       2.000000  2.000000  2.000000  2.000000  2.000000  2.000000
                       2.000000  2.000000  2.000000  2.000000  2.000000  2.000000
                       2.000000  2.000000  2.000000  2.000000  2.000000  2.000000
                       2.000000  2.000000  2.000000  2.000000  2.000000  2.000000
                       2.000000  2.000000  2.000000  2.000000  2.000000  2.000000
                       2.000000  2.000000  2.000001  2.000414  0.000000  0.000000
                       0.000000  0.000000  0.000000  0.000000
                       2.000000  2.000000  2.000000  2.000000  2.000000  2.000000
                       2.000000  2.000000  2.000000  2.000000  2.000000  2.000000
                       2.000000  2.000000  2.000000  2.000000  2.000000  2.000000
                       2.000000  2.000000  2.000000  2.000000  2.000000  2.000000
                       2.000000  2.000000  2.000000  2.000000  2.000000  2.000000
                       2.000000  2.000000  2.000001  2.001150  0.000713  0.000468
                       0.000000  0.000000  0.000000  0.000000
                       2.000000  2.000000  2.000000  2.000000  2.000000  2.000000
                       2.000000  2.000000  2.000000  2.000000  2.000000  2.000000
                       2.000000  2.000000  2.000000  2.000000  2.000000  2.000000
                       2.000000  2.000000  2.000000  2.000000  2.000000  2.000000
                       2.000000  2.000000  2.000000  2.000000  2.000000  2.000000
[...]
                       0.000000  0.000000  0.000000  0.000000
                       2.000000  2.000000  2.000000  2.000000  2.000000  2.000000
                       2.000000  2.000000  2.000000  2.000000  2.000000  2.000000
                       2.000000  2.000000  2.000000  2.000000  2.000000  2.000000
                       2.000000  2.000000  2.000000  2.000000  2.000000  2.000000
                       2.000000  2.000000  2.000000  2.000000  2.000000  2.000000
                       2.000000  2.000000  2.000001  2.001150  0.000713  0.000468
                       0.000000  0.000000  0.000000  0.000000
                       2.000000  2.000000  2.000000  2.000000  2.000000  2.000000
                       2.000000  2.000000  2.000000  2.000000  2.000000  2.000000
                       2.000000  2.000000  2.000000  2.000000  2.000000  2.000000
                       2.000000  2.000000  2.000000  2.000000  2.000000  2.000000
                       2.000000  2.000000  2.000000  2.000000  2.000000  2.000000
                       2.000000  2.000000  2.000000  2.134427  0.000988  0.000331
                       0.000000  0.000000  0.000000  0.000000
                       prtocc : prtvol=0, do not print more k-points.
           occopt           4
        optdriver1          0
        optdriver2          0
        optdriver4          1
        optforces           1
        pawecutdg      4.40991905E+01 Hartree
           prtden1          1
           prtden2          1
           prtden4          0
           prteig           0
            prtwf1          1
            prtwf2          1
            prtwf4          0
          rfatpol           1       8
            rfdir           1       1       1
           rfphon1          0
           rfphon2          0
           rfphon4          1
           shiftk      5.00000000E-01  5.00000000E-01  5.00000000E-01
          spgroup         221
           strten1     2.8300101343E-04  2.8300101343E-04  2.8300101343E-04
                       0.0000000000E+00  0.0000000000E+00  0.0000000000E+00
           strten4     0.0000000000E+00  0.0000000000E+00  0.0000000000E+00
                       0.0000000000E+00  0.0000000000E+00  0.0000000000E+00
           symrel      1  0  0   0  1  0   0  0  1      -1  0  0   0 -1  0   0  0 -1
                      -1  0  0   0  1  0   0  0 -1       1  0  0   0 -1  0   0  0  1
                      -1  0  0   0 -1  0   0  0  1       1  0  0   0  1  0   0  0 -1
                       1  0  0   0 -1  0   0  0 -1      -1  0  0   0  1  0   0  0  1
                       0  1  0   1  0  0   0  0  1       0 -1  0  -1  0  0   0  0 -1
                       0 -1  0   1  0  0   0  0 -1       0  1  0  -1  0  0   0  0  1
                       0 -1  0  -1  0  0   0  0  1       0  1  0   1  0  0   0  0 -1
                       0  1  0  -1  0  0   0  0 -1       0 -1  0   1  0  0   0  0  1
                       0  0  1   1  0  0   0  1  0       0  0 -1  -1  0  0   0 -1  0
                       0  0 -1   1  0  0   0 -1  0       0  0  1  -1  0  0   0  1  0
                       0  0 -1  -1  0  0   0  1  0       0  0  1   1  0  0   0 -1  0
                       0  0  1  -1  0  0   0 -1  0       0  0 -1   1  0  0   0  1  0
                       1  0  0   0  0  1   0  1  0      -1  0  0   0  0 -1   0 -1  0
                      -1  0  0   0  0  1   0 -1  0       1  0  0   0  0 -1   0  1  0
                      -1  0  0   0  0 -1   0  1  0       1  0  0   0  0  1   0 -1  0
                       1  0  0   0  0 -1   0 -1  0      -1  0  0   0  0  1   0  1  0
                       0  1  0   0  0  1   1  0  0       0 -1  0   0  0 -1  -1  0  0
                       0 -1  0   0  0  1  -1  0  0       0  1  0   0  0 -1   1  0  0
                       0 -1  0   0  0 -1   1  0  0       0  1  0   0  0  1  -1  0  0
                       0  1  0   0  0 -1  -1  0  0       0 -1  0   0  0  1   1  0  0
                       0  0  1   0  1  0   1  0  0       0  0 -1   0 -1  0  -1  0  0
                       0  0 -1   0  1  0  -1  0  0       0  0  1   0 -1  0   1  0  0
                       0  0 -1   0 -1  0   1  0  0       0  0  1   0  1  0  -1  0  0
                       0  0  1   0 -1  0  -1  0  0       0  0 -1   0  1  0   1  0  0
           toldfe1     2.93994603E-09 Hartree
           toldfe2     0.00000000E+00 Hartree
           toldfe4     0.00000000E+00 Hartree
           tolvrs1     0.00000000E+00
           tolvrs2     0.00000000E+00
           tolvrs4     1.00000000E-02
           tolwfr1     0.00000000E+00
           tolwfr2     1.00000000E-08
           tolwfr4     0.00000000E+00
            typat      1  1  1  1  3  2  2  2
           useylm           1
              wtk1       0.00463    0.01389    0.01389    0.01389    0.01389    0.01389
                         0.01389    0.02778    0.02778    0.02778    0.02778    0.01389
                         0.02778    0.02778    0.02778    0.01389    0.02778    0.02778
                         0.01389    0.02778    0.01389    0.00463    0.01389    0.01389
                         0.01389    0.01389    0.01389    0.02778    0.02778    0.02778
                         0.01389    0.02778    0.02778    0.01389    0.02778    0.01389
                         0.00463    0.01389    0.01389    0.01389    0.01389    0.02778
                         0.02778    0.01389    0.02778    0.01389    0.00463    0.01389
                         0.01389    0.01389
              wtk2       0.00463    0.01389    0.01389    0.01389    0.01389    0.01389
                         0.01389    0.02778    0.02778    0.02778    0.02778    0.01389
                         0.02778    0.02778    0.02778    0.01389    0.02778    0.02778
                         0.01389    0.02778    0.01389    0.00463    0.01389    0.01389
                         0.01389    0.01389    0.01389    0.02778    0.02778    0.02778
                         0.01389    0.02778    0.02778    0.01389    0.02778    0.01389
                         0.00463    0.01389    0.01389    0.01389    0.01389    0.02778
                         0.02778    0.01389    0.02778    0.01389    0.00463    0.01389
                         0.01389    0.01389
              wtk4       0.00116    0.00116    0.00116    0.00116    0.00116    0.00116
                         0.00116    0.00116    0.00116    0.00116    0.00116    0.00116
                         0.00116    0.00116    0.00116    0.00116    0.00116    0.00116
                         0.00116    0.00116    0.00116    0.00116    0.00116    0.00116
                         0.00116    0.00116    0.00116    0.00116    0.00116    0.00116
                         0.00116    0.00116    0.00116    0.00116    0.00116    0.00116
                         0.00116    0.00116    0.00116    0.00116    0.00116    0.00116
                         0.00116    0.00116    0.00116    0.00116    0.00116    0.00116
                         0.00116    0.00116
                       outvars : Printing only first  50 k-points.
           xangst      0.0000000000E+00  0.0000000000E+00  0.0000000000E+00
                       0.0000000000E+00  2.1146583025E+00  2.1146583025E+00
                       2.1146583025E+00  0.0000000000E+00  2.1146583025E+00
                       2.1146583025E+00  2.1146583025E+00  0.0000000000E+00
                       2.1146583025E+00  2.1146583025E+00  2.1146583025E+00
                       2.1146583025E+00  0.0000000000E+00  0.0000000000E+00
                       0.0000000000E+00  2.1146583025E+00  0.0000000000E+00
                       0.0000000000E+00  0.0000000000E+00  2.1146583025E+00
            xcart      0.0000000000E+00  0.0000000000E+00  0.0000000000E+00
                       0.0000000000E+00  3.9961250563E+00  3.9961250563E+00
                       3.9961250563E+00  0.0000000000E+00  3.9961250563E+00
                       3.9961250563E+00  3.9961250563E+00  0.0000000000E+00
                       3.9961250563E+00  3.9961250563E+00  3.9961250563E+00
                       3.9961250563E+00  0.0000000000E+00  0.0000000000E+00
                       0.0000000000E+00  3.9961250563E+00  0.0000000000E+00
                       0.0000000000E+00  0.0000000000E+00  3.9961250563E+00
             xred      0.0000000000E+00  0.0000000000E+00  0.0000000000E+00
                       0.0000000000E+00  5.0000000000E-01  5.0000000000E-01
                       5.0000000000E-01  0.0000000000E+00  5.0000000000E-01
                       5.0000000000E-01  5.0000000000E-01  0.0000000000E+00
                       5.0000000000E-01  5.0000000000E-01  5.0000000000E-01
                       5.0000000000E-01  0.0000000000E+00  0.0000000000E+00
                       0.0000000000E+00  5.0000000000E-01  0.0000000000E+00
                       0.0000000000E+00  0.0000000000E+00  5.0000000000E-01
            znucl       22.00000    7.00000    5.00000

- Timing analysis has been suppressed with timopt=0

 Suggested references for the acknowledgment of ABINIT usage.

 Calculation completed.
.Delivered   1 WARNINGs and   0 COMMENTs to log file.