.Version 8.0.8 of ABINIT

 ABINIT is a project of the Universite Catholique de Louvain,
 Corning Inc. and other collaborators, see ~abinit/doc/developers/contributors.txt .
 Please read ~abinit/doc/users/acknowledgments.html for suggested
 acknowledgments of the ABINIT effort.

.Starting date : Thu 16 Mar 2017.
- ( at 10h19 )

 === Build Information ===
  Version       : 8.0.8
  Build target  : x86_64_linux_gnu4.7
  Build date    : 20170206

 === Optimizations ===
  Debug level        : basic
  Optimization level : standard
  Architecture       : unknown_unknown

 === Multicore ===
  Parallel build : yes
  Parallel I/O   : yes
  openMP support : no
  GPU support    : no

 === Connectors / Fallbacks ===
  Connectors on : yes
  Fallbacks on  : yes
  FFT flavor    : fftw3
  LINALG flavor : atlas
  MATH flavor   : gsl
  TIMER flavor  : abinit
  TRIO flavor   : netcdf+etsf_io-fallback

 === Experimental features ===
  Bindings            : @enable_bindings@
  Exports             : yes
  GW double-precision : yes

 Default optimizations:
   -O2 -mtune=native -march=native

 Optimizations for 20_datashare:
   -O0

 CPP options activated during the build:

                    CC_GNU                   CXX_GNU                    FC_GNU

                 HAVE_ALGO          HAVE_ALGO_LEVMAR          HAVE_ALGO_SERIAL

         HAVE_BSE_UNPACKED          HAVE_DFT_ATOMPAW           HAVE_DFT_BIGDFT

             HAVE_FC_ASYNC  HAVE_FC_COMMAND_ARGUMENT      HAVE_FC_COMMAND_LINE

        HAVE_FC_CONTIGUOUS           HAVE_FC_CPUTIME              HAVE_FC_EXIT

             HAVE_FC_FLUSH             HAVE_FC_GAMMA            HAVE_FC_GETENV

          HAVE_FC_INT_QUAD             HAVE_FC_IOMSG     HAVE_FC_ISO_C_BINDING

  HAVE_FC_ISO_FORTRAN_2008        HAVE_FC_LONG_LINES        HAVE_FC_MOVE_ALLOC

           HAVE_FC_PRIVATE         HAVE_FC_PROTECTED         HAVE_FC_STREAM_IO

            HAVE_FC_SYSTEM                  HAVE_FFT            HAVE_FFT_FFTW3

              HAVE_FFT_MPI           HAVE_FFT_SERIAL          HAVE_FORTRAN2003

               HAVE_GW_DPC        HAVE_LIBPAW_ABINIT      HAVE_LIBTETRA_ABINIT

               HAVE_LINALG        HAVE_LINALG_SERIAL                 HAVE_MATH

             HAVE_MATH_GSL          HAVE_MATH_SERIAL                  HAVE_MPI

                 HAVE_MPI2        HAVE_MPI_INTEGER16               HAVE_MPI_IO

 HAVE_MPI_TYPE_CREATE_S...                HAVE_NUMPY             HAVE_OS_LINUX

                HAVE_TIMER         HAVE_TIMER_ABINIT            HAVE_TIMER_MPI

         HAVE_TIMER_SERIAL         HAVE_TRIO_ETSF_IO          HAVE_TRIO_NETCDF

      HAVE_TRIO_NETCDF_MPI              USE_MACROAVE

- input  file    -> tpaw1_1.in
- output file    -> tpaw1_1.out
- root for input  files -> tpaw1_1i
- root for output files -> tpaw1_1o

-instrng: 68 lines of input have been read from file tpaw1_1.in

  status : statnu, output_rate, shift_rate=           1           0           1
 level,routine=           3 init istatr
 active(level)=           1
 counter,actual_counter(level,1:2)=           0           0           0
 List of active levels :
  Active level number=           3

 Please give name of formatted atomic psp file
 iofn2 : for atom type 1, psp file is /home/thanusit/psp/8.0.8/6c.lda.atompaw
  read the values zionpsp=  4.0 , pspcod=   7 , lmax=   1
 2 0.                                   : shape_type,rshape

 inpspheads: deduce mpsang = 2, n1xccc = 1.

 invars1m : enter jdtset= 1
 invars1 : treat image number: 1

 symlatt : the Bravais lattice is cF (face-centered cubic)
  xred   is defined in input file
 ingeo : takes atomic coordinates from input array xred

 symlatt : the Bravais lattice is cF (face-centered cubic)

 symlatt : the Bravais lattice is cF (face-centered cubic)
 symspgr : spgroup= 227  Fd -3 m   (=Oh^7)
 ingeo : angdeg(1:3)=   60.00000000   60.00000000   60.00000000
       Simple Lattice Grid

 invars1m : enter jdtset= 2
 invars1 : treat image number: 1

 symlatt : the Bravais lattice is cF (face-centered cubic)
  xred   is defined in input file
 ingeo : takes atomic coordinates from input array xred

 symlatt : the Bravais lattice is cF (face-centered cubic)

 symlatt : the Bravais lattice is cF (face-centered cubic)
 symspgr : spgroup= 227  Fd -3 m   (=Oh^7)
 ingeo : angdeg(1:3)=   60.00000000   60.00000000   60.00000000
       Simple Lattice Grid
       Simple Lattice Grid

 invars2 : Printing the k point grid (values of kptns - max 100 of them)
 nkpt=      28
     ikpt istwfk    wtk       --------- reduced coordinates ---------  --------- cartesian coordinates ---------
       1     1  2.777778E-02 -8.333333E-02 -1.666667E-01  0.000000E+00 -1.236280E-02  1.236280E-02 -3.708839E-02
       2     1  2.777778E-02 -8.333333E-02 -3.333333E-01  0.000000E+00 -3.708839E-02  3.708839E-02 -6.181399E-02
       3     1  2.777778E-02 -1.666667E-01 -2.500000E-01  0.000000E+00 -1.236280E-02  1.236280E-02 -6.181399E-02
       4     1  5.555556E-02 -8.333333E-02 -2.500000E-01  8.333333E-02 -1.236280E-02  3.708839E-02 -6.181399E-02
       5     1  2.777778E-02 -8.333333E-02  5.000000E-01  0.000000E+00  8.653959E-02 -8.653959E-02  6.181399E-02
       6     1  2.777778E-02 -1.666667E-01 -4.166667E-01  0.000000E+00 -3.708839E-02  3.708839E-02 -8.653959E-02
       7     1  5.555556E-02 -8.333333E-02 -4.166667E-01  8.333333E-02 -3.708839E-02  6.181399E-02 -8.653959E-02
       8     1  2.777778E-02 -2.500000E-01 -3.333333E-01  0.000000E+00 -1.236280E-02  1.236280E-02 -8.653959E-02
       9     1  5.555556E-02 -1.666667E-01 -3.333333E-01  8.333333E-02 -1.236280E-02  3.708839E-02 -8.653959E-02
      10     1  5.555556E-02 -8.333333E-02 -3.333333E-01  1.666667E-01 -1.236280E-02  6.181399E-02 -8.653959E-02
      11     1  2.777778E-02 -8.333333E-02  3.333333E-01  0.000000E+00  6.181399E-02 -6.181399E-02  3.708839E-02
      12     1  2.777778E-02 -1.666667E-01  4.166667E-01  0.000000E+00  8.653959E-02 -8.653959E-02  3.708839E-02
      13     1  2.777778E-02 -2.500000E-01  5.000000E-01  0.000000E+00  1.112652E-01 -1.112652E-01  3.708839E-02
      14     1  5.555556E-02 -1.666667E-01  5.000000E-01  8.333333E-02  1.112652E-01 -8.653959E-02  3.708839E-02
      15     1  2.777778E-02 -3.333333E-01 -4.166667E-01  0.000000E+00 -1.236280E-02  1.236280E-02 -1.112652E-01
      16     1  5.555556E-02 -2.500000E-01 -4.166667E-01  8.333333E-02 -1.236280E-02  3.708839E-02 -1.112652E-01
      17     1  5.555556E-02 -1.666667E-01 -4.166667E-01  1.666667E-01 -1.236280E-02  6.181399E-02 -1.112652E-01
      18     1  5.555556E-02 -8.333333E-02 -4.166667E-01  2.500000E-01 -1.236280E-02  8.653959E-02 -1.112652E-01
      19     1  2.777778E-02 -8.333333E-02  1.666667E-01  0.000000E+00  3.708839E-02 -3.708839E-02  1.236280E-02
      20     1  2.777778E-02 -1.666667E-01  2.500000E-01  0.000000E+00  6.181399E-02 -6.181399E-02  1.236280E-02
      21     1  2.777778E-02 -2.500000E-01  3.333333E-01  0.000000E+00  8.653959E-02 -8.653959E-02  1.236280E-02
      22     1  2.777778E-02 -3.333333E-01  4.166667E-01  0.000000E+00  1.112652E-01 -1.112652E-01  1.236280E-02
      23     1  2.777778E-02 -4.166667E-01  5.000000E-01  0.000000E+00  1.359908E-01 -1.359908E-01  1.236280E-02
      24     1  5.555556E-02 -3.333333E-01  5.000000E-01  8.333333E-02  1.359908E-01 -1.112652E-01  1.236280E-02
      25     1  5.555556E-02 -2.500000E-01  5.000000E-01  1.666667E-01  1.359908E-01 -8.653959E-02  1.236280E-02
      26     1  9.259259E-03 -8.333333E-02  0.000000E+00  0.000000E+00  1.236280E-02 -1.236280E-02 -1.236280E-02
      27     1  9.259259E-03 -2.500000E-01  0.000000E+00  0.000000E+00  3.708839E-02 -3.708839E-02 -3.708839E-02
      28     1  9.259259E-03 -4.166667E-01  0.000000E+00  0.000000E+00  6.181399E-02 -6.181399E-02 -6.181399E-02

 invars2 : Printing the k point grid from kptrlatt, shifted with shiftk and qptn, in the full Brillouin zone.
   Maximum 100 of them. No use of symmetries
 nkpt_fullbz=     864
     ikpt      --------------- reduced coordinates ---------------  --------- cartesian coordinates ---------
       1      -8.3333333333E-02 -1.6666666667E-01  0.0000000000E+00 -1.236280E-02  1.236280E-02 -3.708839E-02
       2      -1.6666666667E-01 -8.3333333333E-02  0.0000000000E+00  1.236280E-02 -1.236280E-02 -3.708839E-02
       3      -8.3333333333E-02 -8.3333333333E-02  8.3333333333E-02  1.236280E-02  1.236280E-02 -3.708839E-02
       4      -8.3333333333E-02 -3.3333333333E-01  0.0000000000E+00 -3.708839E-02  3.708839E-02 -6.181399E-02
       5      -1.6666666667E-01 -2.5000000000E-01  0.0000000000E+00 -1.236280E-02  1.236280E-02 -6.181399E-02
       6      -8.3333333333E-02 -2.5000000000E-01  8.3333333333E-02 -1.236280E-02  3.708839E-02 -6.181399E-02
       7      -2.5000000000E-01 -1.6666666667E-01  0.0000000000E+00  1.236280E-02 -1.236280E-02 -6.181399E-02
       8      -1.6666666667E-01 -1.6666666667E-01  8.3333333333E-02  1.236280E-02  1.236280E-02 -6.181399E-02
       9      -8.3333333333E-02 -1.6666666667E-01  1.6666666667E-01  1.236280E-02  3.708839E-02 -6.181399E-02
      10      -3.3333333333E-01 -8.3333333333E-02  0.0000000000E+00  3.708839E-02 -3.708839E-02 -6.181399E-02
      11      -2.5000000000E-01 -8.3333333333E-02  8.3333333333E-02  3.708839E-02 -1.236280E-02 -6.181399E-02
      12      -1.6666666667E-01 -8.3333333333E-02  1.6666666667E-01  3.708839E-02  1.236280E-02 -6.181399E-02
      13      -8.3333333333E-02 -8.3333333333E-02  2.5000000000E-01  3.708839E-02  3.708839E-02 -6.181399E-02
      14      -8.3333333333E-02  5.0000000000E-01  0.0000000000E+00  8.653959E-02 -8.653959E-02  6.181399E-02
      15      -1.6666666667E-01 -4.1666666667E-01  0.0000000000E+00 -3.708839E-02  3.708839E-02 -8.653959E-02
      16      -8.3333333333E-02 -4.1666666667E-01  8.3333333333E-02 -3.708839E-02  6.181399E-02 -8.653959E-02
      17      -2.5000000000E-01 -3.3333333333E-01  0.0000000000E+00 -1.236280E-02  1.236280E-02 -8.653959E-02
      18      -1.6666666667E-01 -3.3333333333E-01  8.3333333333E-02 -1.236280E-02  3.708839E-02 -8.653959E-02
      19      -8.3333333333E-02 -3.3333333333E-01  1.6666666667E-01 -1.236280E-02  6.181399E-02 -8.653959E-02
      20      -3.3333333333E-01 -2.5000000000E-01  0.0000000000E+00  1.236280E-02 -1.236280E-02 -8.653959E-02
      21      -2.5000000000E-01 -2.5000000000E-01  8.3333333333E-02  1.236280E-02  1.236280E-02 -8.653959E-02
      22      -1.6666666667E-01 -2.5000000000E-01  1.6666666667E-01  1.236280E-02  3.708839E-02 -8.653959E-02
      23      -8.3333333333E-02 -2.5000000000E-01  2.5000000000E-01  1.236280E-02  6.181399E-02 -8.653959E-02
      24      -4.1666666667E-01 -1.6666666667E-01  0.0000000000E+00  3.708839E-02 -3.708839E-02 -8.653959E-02
      25      -3.3333333333E-01 -1.6666666667E-01  8.3333333333E-02  3.708839E-02 -1.236280E-02 -8.653959E-02
      26      -2.5000000000E-01 -1.6666666667E-01  1.6666666667E-01  3.708839E-02  1.236280E-02 -8.653959E-02
      27      -1.6666666667E-01 -1.6666666667E-01  2.5000000000E-01  3.708839E-02  3.708839E-02 -8.653959E-02
      28      -8.3333333333E-02 -1.6666666667E-01  3.3333333333E-01  3.708839E-02  6.181399E-02 -8.653959E-02
[...]
  -0.20089    0.00227    0.27363    0.29764    0.69624    0.75310
 kpt#  41, nband=  6, wtk=  0.00694, kpt= -0.0417 -0.4167  0.0833 (reduced coord)
  -0.18078   -0.02512    0.26227    0.30261    0.71565    0.73571
 kpt#  42, nband=  6, wtk=  0.00347, kpt= -0.1667 -0.3750  0.0000 (reduced coord)
  -0.24401    0.10285    0.26690    0.27295    0.64592    0.81473
 kpt#  43, nband=  6, wtk=  0.00694, kpt= -0.1250 -0.3750  0.0417 (reduced coord)
  -0.23076    0.06916    0.25778    0.28820    0.66857    0.78238
 kpt#  44, nband=  6, wtk=  0.00694, kpt= -0.0833 -0.3750  0.0833 (reduced coord)
  -0.21338    0.03794    0.24276    0.29861    0.69980    0.75047
 kpt#  45, nband=  6, wtk=  0.00694, kpt= -0.0417 -0.3750  0.1250 (reduced coord)
  -0.19221    0.01023    0.22580    0.30034    0.71401    0.74531
 kpt#  46, nband=  6, wtk=  0.00347, kpt= -0.2083 -0.3333  0.0000 (reduced coord)
  -0.26193    0.16886    0.25599    0.26348    0.60837    0.79537
 kpt#  47, nband=  6, wtk=  0.00694, kpt= -0.1667 -0.3333  0.0417 (reduced coord)
  -0.25293    0.13752    0.24518    0.27836    0.63354    0.81075
 kpt#  48, nband=  6, wtk=  0.00694, kpt= -0.1250 -0.3333  0.0833 (reduced coord)
  -0.23955    0.10607    0.22684    0.29145    0.66884    0.77898
 kpt#  49, nband=  6, wtk=  0.00694, kpt= -0.0833 -0.3333  0.1250 (reduced coord)
  -0.22191    0.07622    0.20606    0.29872    0.70959    0.74603
 kpt#  50, nband=  6, wtk=  0.00694, kpt= -0.0417 -0.3333  0.1667 (reduced coord)
  -0.20027    0.04905    0.18485    0.29843    0.71121    0.75799
 prteigrs : prtvol=0 or 1, do not print more k-points.

 Total charge density [el/Bohr^3]
      Maximum=    0.0000E+00  at reduced coord.    0.9688    0.9688    0.9688
 Next maximum=    0.0000E+00  at reduced coord.    0.9375    0.9688    0.9688
      Minimum=    0.0000E+00  at reduced coord.    0.0000    0.0000    0.0000
 Next minimum=    0.0000E+00  at reduced coord.    0.0313    0.0000    0.0000
   Integrated=    0.0000E+00

== END DATASET(S) ==============================================================

 -outvars: echo values of variables after computation  --------

 These variables are accessible in NetCDF format (tpaw1_1o_OUT.nc)

            acell      6.7406531160E+00  6.7406531160E+00  6.7406531160E+00 Bohr
              amu      1.20110000E+01
             ecut      1.50000000E+01 Hartree
           ecutsm      5.00000000E-01 Hartree
           etotal1    -1.1525670164E+01
           etotal2    -1.1525670164E+01
            fcart1     3.3080575236E-29  1.4355721329E-29 -6.1792017893E-29
                      -3.3080575236E-29 -1.4355721329E-29  6.1792017893E-29
-          fftalg         312
           getden1          0
           getden2          1
             iscf1         17
             iscf2         -3
              ixc           7
           jdtset        1    2
              kpt1    -8.33333333E-02 -1.66666667E-01  0.00000000E+00
                      -8.33333333E-02 -3.33333333E-01  0.00000000E+00
                      -1.66666667E-01 -2.50000000E-01  0.00000000E+00
                      -8.33333333E-02 -2.50000000E-01  8.33333333E-02
                      -8.33333333E-02  5.00000000E-01  0.00000000E+00
                      -1.66666667E-01 -4.16666667E-01  0.00000000E+00
                      -8.33333333E-02 -4.16666667E-01  8.33333333E-02
                      -2.50000000E-01 -3.33333333E-01  0.00000000E+00
                      -1.66666667E-01 -3.33333333E-01  8.33333333E-02
                      -8.33333333E-02 -3.33333333E-01  1.66666667E-01
                      -8.33333333E-02  3.33333333E-01  0.00000000E+00
                      -1.66666667E-01  4.16666667E-01  0.00000000E+00
                      -2.50000000E-01  5.00000000E-01  0.00000000E+00
                      -1.66666667E-01  5.00000000E-01  8.33333333E-02
                      -3.33333333E-01 -4.16666667E-01  0.00000000E+00
                      -2.50000000E-01 -4.16666667E-01  8.33333333E-02
                      -1.66666667E-01 -4.16666667E-01  1.66666667E-01
                      -8.33333333E-02 -4.16666667E-01  2.50000000E-01
                      -8.33333333E-02  1.66666667E-01  0.00000000E+00
                      -1.66666667E-01  2.50000000E-01  0.00000000E+00
                      -2.50000000E-01  3.33333333E-01  0.00000000E+00
                      -3.33333333E-01  4.16666667E-01  0.00000000E+00
                      -4.16666667E-01  5.00000000E-01  0.00000000E+00
                      -3.33333333E-01  5.00000000E-01  8.33333333E-02
                      -2.50000000E-01  5.00000000E-01  1.66666667E-01
                      -8.33333333E-02  0.00000000E+00  0.00000000E+00
                      -2.50000000E-01  0.00000000E+00  0.00000000E+00
                      -4.16666667E-01  0.00000000E+00  0.00000000E+00
              kpt2    -4.16666667E-02 -8.33333333E-02  0.00000000E+00
                      -4.16666667E-02 -1.66666667E-01  0.00000000E+00
                      -8.33333333E-02 -1.25000000E-01  0.00000000E+00
                      -4.16666667E-02 -1.25000000E-01  4.16666667E-02
                      -4.16666667E-02 -2.50000000E-01  0.00000000E+00
                      -8.33333333E-02 -2.08333333E-01  0.00000000E+00
                      -4.16666667E-02 -2.08333333E-01  4.16666667E-02
                      -1.25000000E-01 -1.66666667E-01  0.00000000E+00
                      -8.33333333E-02 -1.66666667E-01  4.16666667E-02
                      -4.16666667E-02 -1.66666667E-01  8.33333333E-02
                      -4.16666667E-02 -3.33333333E-01  0.00000000E+00
                      -8.33333333E-02 -2.91666667E-01  0.00000000E+00
                      -4.16666667E-02 -2.91666667E-01  4.16666667E-02
                      -1.25000000E-01 -2.50000000E-01  0.00000000E+00
                      -8.33333333E-02 -2.50000000E-01  4.16666667E-02
                      -4.16666667E-02 -2.50000000E-01  8.33333333E-02
                      -1.66666667E-01 -2.08333333E-01  0.00000000E+00
                      -1.25000000E-01 -2.08333333E-01  4.16666667E-02
                      -8.33333333E-02 -2.08333333E-01  8.33333333E-02
                      -4.16666667E-02 -2.08333333E-01  1.25000000E-01
                      -4.16666667E-02 -4.16666667E-01  0.00000000E+00
                      -8.33333333E-02 -3.75000000E-01  0.00000000E+00
                      -4.16666667E-02 -3.75000000E-01  4.16666667E-02
                      -1.25000000E-01 -3.33333333E-01  0.00000000E+00
                      -8.33333333E-02 -3.33333333E-01  4.16666667E-02
                      -4.16666667E-02 -3.33333333E-01  8.33333333E-02
                      -1.66666667E-01 -2.91666667E-01  0.00000000E+00
                      -1.25000000E-01 -2.91666667E-01  4.16666667E-02
                      -8.33333333E-02 -2.91666667E-01  8.33333333E-02
                      -4.16666667E-02 -2.91666667E-01  1.25000000E-01
                      -2.08333333E-01 -2.50000000E-01  0.00000000E+00
                      -1.66666667E-01 -2.50000000E-01  4.16666667E-02
                      -1.25000000E-01 -2.50000000E-01  8.33333333E-02
                      -8.33333333E-02 -2.50000000E-01  1.25000000E-01
                      -4.16666667E-02 -2.50000000E-01  1.66666667E-01
                      -4.16666667E-02  5.00000000E-01  0.00000000E+00
                      -8.33333333E-02 -4.58333333E-01  0.00000000E+00
                      -4.16666667E-02 -4.58333333E-01  4.16666667E-02
                      -1.25000000E-01 -4.16666667E-01  0.00000000E+00
                      -8.33333333E-02 -4.16666667E-01  4.16666667E-02
                      -4.16666667E-02 -4.16666667E-01  8.33333333E-02
                      -1.66666667E-01 -3.75000000E-01  0.00000000E+00
                      -1.25000000E-01 -3.75000000E-01  4.16666667E-02
                      -8.33333333E-02 -3.75000000E-01  8.33333333E-02
                      -4.16666667E-02 -3.75000000E-01  1.25000000E-01
                      -2.08333333E-01 -3.33333333E-01  0.00000000E+00
                      -1.66666667E-01 -3.33333333E-01  4.16666667E-02
                      -1.25000000E-01 -3.33333333E-01  8.33333333E-02
                      -8.33333333E-02 -3.33333333E-01  1.25000000E-01
                      -4.16666667E-02 -3.33333333E-01  1.66666667E-01
                       outvar_i_n : Printing only first  50 k-points.
         kptrlatt1       6   -6    6     -6    6    6     -6   -6    6
         kptrlatt2      12  -12   12    -12   12   12    -12  -12   12
          kptrlen1     4.04439187E+01
          kptrlen2     8.08878374E+01
P           mkmem1          4
P           mkmem2         23
            natom           2
            nband1          6
            nband2          6
           nbdbuf1          0
           nbdbuf2          2
           ndtset           2
            ngfft          18      18      18
          ngfftdg          32      32      32
             nkpt1         28
             nkpt2        182
            nstep          20
             nsym          48
           ntypat           1
              occ1     2.000000  2.000000  2.000000  2.000000  0.000000  0.000000
              occ2     2.000000  2.000000  2.000000  2.000000  0.000000  0.000000
        pawecutdg      5.00000000E+01 Hartree
       prtbltztrp1          0
       prtbltztrp2          1
           prtdos           2
            rprim      0.0000000000E+00  5.0000000000E-01  5.0000000000E-01
                       5.0000000000E-01  0.0000000000E+00  5.0000000000E-01
                       5.0000000000E-01  5.0000000000E-01  0.0000000000E+00
           shiftk      5.00000000E-01  5.00000000E-01  5.00000000E-01
          spgroup         227
           strten1     4.2095219297E-04  4.2095219297E-04  4.2095219297E-04
                       0.0000000000E+00  0.0000000000E+00  0.0000000000E+00
           symrel      1  0  0   0  1  0   0  0  1      -1  0  0   0 -1  0   0  0 -1
                       0 -1  1   0 -1  0   1 -1  0       0  1 -1   0  1  0  -1  1  0
                      -1  0  0  -1  0  1  -1  1  0       1  0  0   1  0 -1   1 -1  0
                       0  1 -1   1  0 -1   0  0 -1       0 -1  1  -1  0  1   0  0  1
                      -1  0  0  -1  1  0  -1  0  1       1  0  0   1 -1  0   1  0 -1
                       0 -1  1   1 -1  0   0 -1  0       0  1 -1  -1  1  0   0  1  0
                       1  0  0   0  0  1   0  1  0      -1  0  0   0  0 -1   0 -1  0
                       0  1 -1   0  0 -1   1  0 -1       0 -1  1   0  0  1  -1  0  1
                      -1  0  1  -1  1  0  -1  0  0       1  0 -1   1 -1  0   1  0  0
                       0 -1  0   1 -1  0   0 -1  1       0  1  0  -1  1  0   0  1 -1
                       1  0 -1   0  0 -1   0  1 -1      -1  0  1   0  0  1   0 -1  1
                       0  1  0   0  0  1   1  0  0       0 -1  0   0  0 -1  -1  0  0
                       1  0 -1   0  1 -1   0  0 -1      -1  0  1   0 -1  1   0  0  1
                       0 -1  0   0 -1  1   1 -1  0       0  1  0   0  1 -1  -1  1  0
                      -1  0  1  -1  0  0  -1  1  0       1  0 -1   1  0  0   1 -1  0
                       0  1  0   1  0  0   0  0  1       0 -1  0  -1  0  0   0  0 -1
                       0  0 -1   0  1 -1   1  0 -1       0  0  1   0 -1  1  -1  0  1
                       1 -1  0   0 -1  1   0 -1  0      -1  1  0   0  1 -1   0  1  0
                       0  0  1   1  0  0   0  1  0       0  0 -1  -1  0  0   0 -1  0
                      -1  1  0  -1  0  0  -1  0  1       1 -1  0   1  0  0   1  0 -1
                       0  0  1   0  1  0   1  0  0       0  0 -1   0 -1  0  -1  0  0
                       1 -1  0   0 -1  0   0 -1  1      -1  1  0   0  1  0   0  1 -1
                       0  0 -1   1  0 -1   0  1 -1       0  0  1  -1  0  1   0 -1  1
                      -1  1  0  -1  0  1  -1  0  0       1 -1  0   1  0 -1   1  0  0
            tnons      0.0000000  0.0000000  0.0000000     0.2500000  0.2500000  0.2500000
                       0.0000000  0.0000000  0.0000000     0.2500000  0.2500000  0.2500000
                       0.0000000  0.0000000  0.0000000     0.2500000  0.2500000  0.2500000
                       0.0000000  0.0000000  0.0000000     0.2500000  0.2500000  0.2500000
                       0.0000000  0.0000000  0.0000000     0.2500000  0.2500000  0.2500000
                       0.0000000  0.0000000  0.0000000     0.2500000  0.2500000  0.2500000
                       0.0000000  0.0000000  0.0000000     0.2500000  0.2500000  0.2500000
                       0.0000000  0.0000000  0.0000000     0.2500000  0.2500000  0.2500000
                       0.0000000  0.0000000  0.0000000     0.2500000  0.2500000  0.2500000
                       0.0000000  0.0000000  0.0000000     0.2500000  0.2500000  0.2500000
                       0.0000000  0.0000000  0.0000000     0.2500000  0.2500000  0.2500000
                       0.0000000  0.0000000  0.0000000     0.2500000  0.2500000  0.2500000
                       0.0000000  0.0000000  0.0000000     0.2500000  0.2500000  0.2500000
                       0.0000000  0.0000000  0.0000000     0.2500000  0.2500000  0.2500000
                       0.0000000  0.0000000  0.0000000     0.2500000  0.2500000  0.2500000
                       0.0000000  0.0000000  0.0000000     0.2500000  0.2500000  0.2500000
                       0.0000000  0.0000000  0.0000000     0.2500000  0.2500000  0.2500000
                       0.0000000  0.0000000  0.0000000     0.2500000  0.2500000  0.2500000
                       0.0000000  0.0000000  0.0000000     0.2500000  0.2500000  0.2500000
                       0.0000000  0.0000000  0.0000000     0.2500000  0.2500000  0.2500000
                       0.0000000  0.0000000  0.0000000     0.2500000  0.2500000  0.2500000
                       0.0000000  0.0000000  0.0000000     0.2500000  0.2500000  0.2500000
                       0.0000000  0.0000000  0.0000000     0.2500000  0.2500000  0.2500000
                       0.0000000  0.0000000  0.0000000     0.2500000  0.2500000  0.2500000
           tolvrs      1.00000000E-10
            typat      1  1
           useylm           1
              wtk1       0.02778    0.02778    0.02778    0.05556    0.02778    0.02778
                         0.05556    0.02778    0.05556    0.05556    0.02778    0.02778
                         0.02778    0.05556    0.02778    0.05556    0.05556    0.05556
                         0.02778    0.02778    0.02778    0.02778    0.02778    0.05556
                         0.05556    0.00926    0.00926    0.00926
              wtk2       0.00347    0.00347    0.00347    0.00694    0.00347    0.00347
                         0.00694    0.00347    0.00694    0.00694    0.00347    0.00347
                         0.00694    0.00347    0.00694    0.00694    0.00347    0.00694
                         0.00694    0.00694    0.00347    0.00347    0.00694    0.00347
                         0.00694    0.00694    0.00347    0.00694    0.00694    0.00694
                         0.00347    0.00694    0.00694    0.00694    0.00694    0.00347
                         0.00347    0.00694    0.00347    0.00694    0.00694    0.00347
                         0.00694    0.00694    0.00694    0.00347    0.00694    0.00694
                         0.00694    0.00694
                       outvars : Printing only first  50 k-points.
           xangst      0.0000000000E+00  0.0000000000E+00  0.0000000000E+00
                       8.9175000000E-01  8.9175000000E-01  8.9175000000E-01
            xcart      0.0000000000E+00  0.0000000000E+00  0.0000000000E+00
                       1.6851632790E+00  1.6851632790E+00  1.6851632790E+00
             xred      0.0000000000E+00  0.0000000000E+00  0.0000000000E+00
                       2.5000000000E-01  2.5000000000E-01  2.5000000000E-01
            znucl        6.00000

 Suggested references for the acknowledgment of ABINIT usage.

 Calculation completed.
.Delivered   2 WARNINGs and   0 COMMENTs to log file.

--- !FinalSummary
program: abinit
version: 8.0.8
start_datetime: Thu Mar 16 10:19:48 2017
end_datetime: Thu Mar 16 10:20:00 2017
overall_cpu_time:          94.0
overall_wall_time:          96.5
exit_requested_by_user: no
timelimit: 0
pseudos:
    C   : 016e1f541945a120fe360662732ba284
usepaw: 1
mpi_procs: 8
omp_threads: 1
num_warnings: 2
num_comments: 0
...
   Tot. No. of Allocations             :  0
   Tot. No. of Deallocations           :  0
     Peak Value (MB)                   :  0
     for the array                     : null
     in the routine                    : null
 Max No. of dictionaries used          :  807 #( 797 still in use)
 Number of dictionary folders allocated:  1