.Version 7.10.5 of ABINIT

 ABINIT is a project of the Universite Catholique de Louvain,
 Corning Inc. and other collaborators, see ~abinit/doc/developers/contributors.txt .
 Please read ~abinit/doc/users/acknowledgments.html for suggested
 acknowledgments of the ABINIT effort.

.Starting date : Mon  5 Dec 2016.
- ( at 13h26 )

 === Build Information ===
  Version       : 7.10.5
  Build target  : x86_64_linux_intel16.0
  Build date    : 20161130

 === Optimizations ===
  Debug level        : basic
  Optimization level : standard
  Architecture       : intel_xeon

 === Multicore ===
  Parallel build : yes
  Parallel I/O   : auto
  openMP support : no
  GPU support    : no

 === Connectors / Fallbacks ===
  Connectors on : yes
  Fallbacks on  : yes
  FFT flavor    : fftw3
  LINALG flavor : mkl
  MATH flavor   : none
  TIMER flavor  : abinit
  TRIO flavor   : none

 === Experimental features ===
  Bindings            : @enable_bindings@
  Exports             : no
  GW double-precision : no

 Default optimizations:
   -O2 -xHost

 CPP options activated during the build:

                  CC_INTEL                   CXX_GNU                  FC_INTEL

             HAVE_FC_ASYNC  HAVE_FC_COMMAND_ARGUMENT      HAVE_FC_COMMAND_LINE

        HAVE_FC_CONTIGUOUS           HAVE_FC_CPUTIME              HAVE_FC_EXIT

             HAVE_FC_FLUSH             HAVE_FC_GAMMA   HAVE_FC_IEEE_EXCEPTIONS

             HAVE_FC_IOMSG     HAVE_FC_ISO_C_BINDING        HAVE_FC_LONG_LINES

        HAVE_FC_MOVE_ALLOC           HAVE_FC_PRIVATE         HAVE_FC_PROTECTED

         HAVE_FC_STREAM_IO                  HAVE_FFT            HAVE_FFT_FFTW3

              HAVE_FFT_MPI           HAVE_FFT_SERIAL        HAVE_LIBPAW_ABINIT

               HAVE_LINALG        HAVE_LINALG_SERIAL                  HAVE_MPI

                 HAVE_MPI2       HAVE_MPI_IALLREDUCE        HAVE_MPI_IALLTOALL

       HAVE_MPI_IALLTOALLV               HAVE_MPI_IO HAVE_MPI_TYPE_CREATE_S...

                HAVE_NUMPY             HAVE_OS_LINUX                HAVE_TIMER

         HAVE_TIMER_ABINIT            HAVE_TIMER_MPI         HAVE_TIMER_SERIAL

              USE_MACROAVE

- input  file    -> abinit.in
- output file    -> abinit.out
- root for input  files -> abi
- root for output files -> abo

-instrng :    35 lines of input have been read from file abinit.in

 iofn2 : Please give name of formatted atomic psp file
 iofn2 : for atom type   1 , psp file is 13-Al.GGA.fhi
  read the values zionpsp=  3.0 , pspcod=   6 , lmax=   3
nproj =      1     1     1     1
nprojso =      0     0     0

 inpspheads: deduce mpsang  =   4, n1xccc  =   0.

 invars1m : enter jdtset=0
 invars1 : treat image number     1

 symlatt : the Bravais lattice is cF (face-centered cubic)
  xred   is defined in input file
 ingeo : takes atomic coordinates from input array xred

 symlatt : the Bravais lattice is cF (face-centered cubic)

 symlatt : the Bravais lattice is cF (face-centered cubic)
 symspgr : spgroup= 225  Fm -3 m   (=Oh^5)
       Simple Lattice Grid
       Simple Lattice Grid
  dtset%nelect=   3.00000000000000
 chkneu : initialized the occupation numbers for occopt=    6
    spin-unpolarized case :
  2.00  1.00  0.00  0.00  0.00  0.00
 getmpw sequential formula gave:     3126

 Computing all possible proc distrib for this input with nproc less than 8
     npimage|       npkpt|    npspinor|       npfft|      npband|     bandpp |       nproc|      weight|
   1 ->    1|   1 ->    8|   1 ->    1|   1 ->    8|   1 ->    6|   1 ->    4|   2 ->    8|   1 ->    8|
           1|           8|           1|           1|           1|           1|           8|       7.76 |
           1|           4|           1|           2|           1|           1|           8|       7.23 |
           1|           4|           1|           1|           2|           1|           8|       7.23 |
           1|           7|           1|           1|           1|           1|           7|       6.80 |
           1|           2|           1|           4|           1|           1|           8|       6.71 |
npfft, npband, npspinor and npkpt:     1    1    1    8

--- !WARNING
message: |
    nkpt*nsppol (455) is not a multiple of nproc_kpt (8)
    The k-point parallelisation is not efficient.
src_file: distrb2.F90
src_line: 113
...

mpi_setup: mkmem  undefined in the input file.Use default mkmem  = nkpt
 mpi_setup: With nkpt_me=57 and mkmem  = 455, ground state wf handled in core.
mpi_setup: mkqmem undefined in the input file.Use default mkqmem = nkpt
 mpi_setup: With nkpt_me=57 and mkqmem = 455, ground state wf handled in core.
mpi_setup: mk1mem undefined in the input file.Use default mk1mem = nkpt
 mpi_setup: With nkpt_me=57 and mk1mem = 455, ground state wf handled in core.
 For input ecut=  7.144069E+01 best grid ngfft=      45      45      45
       max ecut=  8.339544E+01

 ==== FFT mesh ====
  FFT mesh divisions ........................    45   45   45
  Augmented FFT divisions ...................    45   45   45
  FFT algorithm .............................   312
  FFT cache size ............................    16
 getmpw: optimal value of mpw=    3146

 Symmetries : space group Fm -3 m (#225); Bravais cF (face-center cubic)

 getdim_nloc : deduce lmnmax  =  16, lnmax  =   4,
                      lmnmaxso=  16, lnmaxso=   4.
   intxc =         0  ionmov =         2    iscf =         7 xclevel =         2
  lmnmax =         4   lnmax =         4   mband =         6  mffmem =         1
P  mgfft =        45   mkmem =        57 mpssoang=         4     mpw =      3146
  mqgrid =      3001   natom =         1    nfft =     91125    nkpt =       455
  nloalg =         4  nspden =         1 nspinor =         1  nsppol =         1
    nsym =        48  n1xccc =         0  ntypat =         1  occopt =         6
  Rough estimation (10% accuracy) of disk space for files :

 The job will continue.
------------- Echo of variables that govern the present computation ------------
-
- outvars: echo of selected default values
-   accesswff0 =  0 , fftalg0 =312 , wfoptalg0 =  0
-
- outvars: echo of global parameters not present in the input file
-  max_nthreads =    0
-
 -outvars: echo values of preprocessed input variables --------
            acell      1.8897261329E+00  1.8897261329E+00  1.8897261329E+00 Bohr
              amu      2.69815390E+01
        autoparal           1
          dilatmx      1.80000000E+00
        dosdeltae      1.83746627E-03 Hartree
             ecut      2.20495952E+01 Hartree
           ecutsm      5.00000000E-01 Hartree
           enunit           1
-          fftalg         312
           ionmov           2
           istwfk        2    0    0    0    0    0    0    0    0    0
                         0    0    0    0    0    0    0    0    0    0
                         0    0    0    0    0    0    0    0    0    0
                         0    0    0    0    0    0    0    0    0    0
                         0    0    0    0    0    0    0    0    0    0
                       outvar_i_n : Printing only first  50 k-points.
              ixc     -263267
              kpt      0.00000000E+00  0.00000000E+00  0.00000000E+00
                       4.00000000E-02  0.00000000E+00  0.00000000E+00
                       8.00000000E-02  0.00000000E+00  0.00000000E+00
                       1.20000000E-01  0.00000000E+00  0.00000000E+00
                       1.60000000E-01  0.00000000E+00  0.00000000E+00
                       2.00000000E-01  0.00000000E+00  0.00000000E+00
                       2.40000000E-01  0.00000000E+00  0.00000000E+00
                       2.80000000E-01  0.00000000E+00  0.00000000E+00
                       3.20000000E-01  0.00000000E+00  0.00000000E+00
                       3.60000000E-01  0.00000000E+00  0.00000000E+00
                       4.00000000E-01  0.00000000E+00  0.00000000E+00
                       4.40000000E-01  0.00000000E+00  0.00000000E+00
                       4.80000000E-01  0.00000000E+00  0.00000000E+00
                       4.00000000E-02  4.00000000E-02  0.00000000E+00
                       8.00000000E-02  4.00000000E-02  0.00000000E+00
                       1.20000000E-01  4.00000000E-02  0.00000000E+00
                       1.60000000E-01  4.00000000E-02  0.00000000E+00
                       2.00000000E-01  4.00000000E-02  0.00000000E+00
                       2.40000000E-01  4.00000000E-02  0.00000000E+00
                       2.80000000E-01  4.00000000E-02  0.00000000E+00
                       3.20000000E-01  4.00000000E-02  0.00000000E+00
                       3.60000000E-01  4.00000000E-02  0.00000000E+00
                       4.00000000E-01  4.00000000E-02  0.00000000E+00
                       4.40000000E-01  4.00000000E-02  0.00000000E+00
                       4.80000000E-01  4.00000000E-02  0.00000000E+00
                      -4.80000000E-01  4.00000000E-02  0.00000000E+00
                      -4.40000000E-01  4.00000000E-02  0.00000000E+00
                      -4.00000000E-01  4.00000000E-02  0.00000000E+00
                      -3.60000000E-01  4.00000000E-02  0.00000000E+00
                      -3.20000000E-01  4.00000000E-02  0.00000000E+00
                      -2.80000000E-01  4.00000000E-02  0.00000000E+00
                      -2.40000000E-01  4.00000000E-02  0.00000000E+00
                      -2.00000000E-01  4.00000000E-02  0.00000000E+00
                      -1.60000000E-01  4.00000000E-02  0.00000000E+00
                      -1.20000000E-01  4.00000000E-02  0.00000000E+00
                      -8.00000000E-02  4.00000000E-02  0.00000000E+00
                      -4.00000000E-02  4.00000000E-02  0.00000000E+00
                       8.00000000E-02  8.00000000E-02  0.00000000E+00
                       1.20000000E-01  8.00000000E-02  0.00000000E+00
                       1.60000000E-01  8.00000000E-02  0.00000000E+00
                       2.00000000E-01  8.00000000E-02  0.00000000E+00
                       2.40000000E-01  8.00000000E-02  0.00000000E+00
                       2.80000000E-01  8.00000000E-02  0.00000000E+00
                       3.20000000E-01  8.00000000E-02  0.00000000E+00
                       3.60000000E-01  8.00000000E-02  0.00000000E+00
                       4.00000000E-01  8.00000000E-02  0.00000000E+00
                       4.40000000E-01  8.00000000E-02  0.00000000E+00
                       4.80000000E-01  8.00000000E-02  0.00000000E+00
                      -4.80000000E-01  8.00000000E-02  0.00000000E+00
                      -4.40000000E-01  8.00000000E-02  0.00000000E+00
                       outvar_i_n : Printing only first  50 k-points.
         kptrlatt       25    0    0      0   25    0      0    0   25
          kptrlen      1.33790846E+02
P           mkmem          57
            natom           1
            nband           6
            ngfft          45      45      45
             nkpt         455
-           npkpt           8
            nstep          50
             nsym          48
            ntime          30
           ntypat           1
              occ      2.000000  1.000000  0.000000  0.000000  0.000000  0.000000
[...]
 Lengths [Bohr]
  5.07838835597016E+00  5.07838835597016E+00  5.07838835597016E+00
 Stress tensor in cartesian coordinates (strten) [Ha/bohr^3]
 -1.54238492637571E-12  0.00000000000000E+00  0.00000000000000E+00
  0.00000000000000E+00 -1.54238514321614E-12  0.00000000000000E+00
  0.00000000000000E+00  0.00000000000000E+00 -1.54238525163636E-12
 Total energy (etotal) [Ha]= -2.06453210463353E+00

 Difference of energy with previous step (new-old):
           Absolute (Ha)=-1.25431E-08
           Relative     =-6.07552E-09

 At Broyd/MD step  11, gradients are converged :
  max grad (force/stress) = 1.5424E-10 < tolmxf= 1.0000E-08 ha/bohr (free atoms)

 Geometry Optimization Precondition:           0

 ----iterations are completed or convergence reached----

 Cartesian components of stress tensor (hartree/bohr^3)
  sigma(1 1)= -1.54238493E-12  sigma(3 2)=  0.00000000E+00
  sigma(2 2)= -1.54238514E-12  sigma(3 1)=  0.00000000E+00
  sigma(3 3)= -1.54238525E-12  sigma(2 1)=  0.00000000E+00

-Cartesian components of stress tensor (GPa)         [Pressure=  4.5379E-08 GPa]
- sigma(1 1)= -4.53785236E-08  sigma(3 2)=  0.00000000E+00
- sigma(2 2)= -4.53785300E-08  sigma(3 1)=  0.00000000E+00
- sigma(3 3)= -4.53785332E-08  sigma(2 1)=  0.00000000E+00

== END DATASET(S) ==============================================================

 -outvars: echo values of variables after computation  --------
            acell      1.7932398722E+00  1.7932398722E+00  1.7932398722E+00 Bohr
              amu      2.69815390E+01
        autoparal           1
          dilatmx      1.80000000E+00
        dosdeltae      1.83746627E-03 Hartree
             ecut      2.20495952E+01 Hartree
           ecutsm      5.00000000E-01 Hartree
           enunit           1
           etotal     -2.0645321046E+00
            fcart      0.0000000000E+00  0.0000000000E+00  0.0000000000E+00
-          fftalg         312
           ionmov           2
           istwfk        2    0    0    0    0    0    0    0    0    0
                         0    0    0    0    0    0    0    0    0    0
                         0    0    0    0    0    0    0    0    0    0
                         0    0    0    0    0    0    0    0    0    0
                         0    0    0    0    0    0    0    0    0    0
                       outvar_i_n : Printing only first  50 k-points.
              ixc     -263267
              kpt      0.00000000E+00  0.00000000E+00  0.00000000E+00
                       4.00000000E-02  0.00000000E+00  0.00000000E+00
                       8.00000000E-02  0.00000000E+00  0.00000000E+00
                       1.20000000E-01  0.00000000E+00  0.00000000E+00
                       1.60000000E-01  0.00000000E+00  0.00000000E+00
                       2.00000000E-01  0.00000000E+00  0.00000000E+00
                       2.40000000E-01  0.00000000E+00  0.00000000E+00
                       2.80000000E-01  0.00000000E+00  0.00000000E+00
                       3.20000000E-01  0.00000000E+00  0.00000000E+00
                       3.60000000E-01  0.00000000E+00  0.00000000E+00
                       4.00000000E-01  0.00000000E+00  0.00000000E+00
                       4.40000000E-01  0.00000000E+00  0.00000000E+00
                       4.80000000E-01  0.00000000E+00  0.00000000E+00
                       4.00000000E-02  4.00000000E-02  0.00000000E+00
                       8.00000000E-02  4.00000000E-02  0.00000000E+00
                       1.20000000E-01  4.00000000E-02  0.00000000E+00
                       1.60000000E-01  4.00000000E-02  0.00000000E+00
                       2.00000000E-01  4.00000000E-02  0.00000000E+00
                       2.40000000E-01  4.00000000E-02  0.00000000E+00
                       2.80000000E-01  4.00000000E-02  0.00000000E+00
                       3.20000000E-01  4.00000000E-02  0.00000000E+00
                       3.60000000E-01  4.00000000E-02  0.00000000E+00
                       4.00000000E-01  4.00000000E-02  0.00000000E+00
                       4.40000000E-01  4.00000000E-02  0.00000000E+00
                       4.80000000E-01  4.00000000E-02  0.00000000E+00
                      -4.80000000E-01  4.00000000E-02  0.00000000E+00
                      -4.40000000E-01  4.00000000E-02  0.00000000E+00
                      -4.00000000E-01  4.00000000E-02  0.00000000E+00
                      -3.60000000E-01  4.00000000E-02  0.00000000E+00
                      -3.20000000E-01  4.00000000E-02  0.00000000E+00
                      -2.80000000E-01  4.00000000E-02  0.00000000E+00
                      -2.40000000E-01  4.00000000E-02  0.00000000E+00
                      -2.00000000E-01  4.00000000E-02  0.00000000E+00
                      -1.60000000E-01  4.00000000E-02  0.00000000E+00
                      -1.20000000E-01  4.00000000E-02  0.00000000E+00
                      -8.00000000E-02  4.00000000E-02  0.00000000E+00
                      -4.00000000E-02  4.00000000E-02  0.00000000E+00
                       8.00000000E-02  8.00000000E-02  0.00000000E+00
                       1.20000000E-01  8.00000000E-02  0.00000000E+00
                       1.60000000E-01  8.00000000E-02  0.00000000E+00
                       2.00000000E-01  8.00000000E-02  0.00000000E+00
                       2.40000000E-01  8.00000000E-02  0.00000000E+00
                       2.80000000E-01  8.00000000E-02  0.00000000E+00
                       3.20000000E-01  8.00000000E-02  0.00000000E+00
                       3.60000000E-01  8.00000000E-02  0.00000000E+00
                       4.00000000E-01  8.00000000E-02  0.00000000E+00
                       4.40000000E-01  8.00000000E-02  0.00000000E+00
                       4.80000000E-01  8.00000000E-02  0.00000000E+00
                      -4.80000000E-01  8.00000000E-02  0.00000000E+00
                      -4.40000000E-01  8.00000000E-02  0.00000000E+00
                       outvar_i_n : Printing only first  50 k-points.
         kptrlatt       25    0    0      0   25    0      0    0   25
          kptrlen      1.33790846E+02
P           mkmem          57
            natom           1
            nband           6
            ngfft          45      45      45
             nkpt         455
-           npkpt           8
            nstep          50
             nsym          48
            ntime          30
           ntypat           1
              occ      2.000000  0.000000  0.000000  0.000000  0.000000  0.000000
                       2.000000  0.000000  0.000000  0.000000  0.000000  0.000000
                       2.000000  0.000000  0.000000  0.000000  0.000000  0.000000
                       2.000000  0.000000  0.000000  0.000000  0.000000  0.000000
                       2.000000  0.000000  0.000000  0.000000  0.000000  0.000000
                       2.000000  0.000000  0.000000  0.000000  0.000000  0.000000
                       2.000000  0.000000  0.000000  0.000000  0.000000  0.000000
                       2.000000  0.000000  0.000000  0.000000  0.000000  0.000000
                       2.000000 -0.000000  0.000000  0.000000  0.000000  0.000000
                       2.000000  2.004727  0.000000  0.000000  0.000000  0.000000
                       2.000000  2.000000  0.000000  0.000000  0.000000  0.000000
                       2.000000  2.000000  0.000000  0.000000  0.000000  0.000000
                       2.000000  2.000000  0.000000  0.000000  0.000000  0.000000
                       2.000000  0.000000  0.000000  0.000000  0.000000  0.000000
                       2.000000  0.000000  0.000000  0.000000  0.000000  0.000000
                       2.000000  0.000000  0.000000  0.000000  0.000000  0.000000
                       2.000000  0.000000  0.000000  0.000000  0.000000  0.000000
                       2.000000  0.000000  0.000000  0.000000  0.000000  0.000000
                       2.000000  0.000000  0.000000  0.000000  0.000000  0.000000
                       2.000000  0.000000  0.000000  0.000000  0.000000  0.000000
                       2.000000  0.000000  0.000000  0.000000  0.000000  0.000000
                       2.000000  0.378372  0.000000  0.000000  0.000000  0.000000
                       2.000000  2.000000  0.000000  0.000000  0.000000  0.000000
                       2.000000  2.000000  0.000000  0.000000  0.000000  0.000000
                       2.000000  2.000000  0.000000  0.000000  0.000000  0.000000
                       2.000000  2.000000  0.000000  0.000000  0.000000  0.000000
                       2.000000  2.000000  0.000000  0.000000  0.000000  0.000000
                       2.000000  2.000000  0.000000  0.000000  0.000000  0.000000
                       2.000000  2.000000  0.000000  0.000000  0.000000  0.000000
                       2.000000 -0.000211  0.000000  0.000000  0.000000  0.000000
                       2.000000  0.000000  0.000000  0.000000  0.000000  0.000000
                       2.000000  0.000000  0.000000  0.000000  0.000000  0.000000
                       2.000000  0.000000  0.000000  0.000000  0.000000  0.000000
                       2.000000  0.000000  0.000000  0.000000  0.000000  0.000000
                       2.000000  0.000000  0.000000  0.000000  0.000000  0.000000
                       2.000000  0.000000  0.000000  0.000000  0.000000  0.000000
                       2.000000  0.000000  0.000000  0.000000  0.000000  0.000000
                       2.000000  0.000000  0.000000  0.000000  0.000000  0.000000
                       2.000000  0.000000  0.000000  0.000000  0.000000  0.000000
                       2.000000  0.000000  0.000000  0.000000  0.000000  0.000000
                       2.000000  0.000000  0.000000  0.000000  0.000000  0.000000
                       2.000000  0.000000  0.000000  0.000000  0.000000  0.000000
                       2.000000  0.000000  0.000000  0.000000  0.000000  0.000000
                       2.000000  0.000000  0.000000  0.000000  0.000000  0.000000
                       2.000000 -0.000006  0.000000  0.000000  0.000000  0.000000
                       2.000000  2.000000  0.000000  0.000000  0.000000  0.000000
                       2.000000  2.000000  0.000000  0.000000  0.000000  0.000000
                       2.000000  2.000000  0.000000  0.000000  0.000000  0.000000
                       2.000000  2.000000  0.000000  0.000000  0.000000  0.000000
                       2.000000  2.000000  0.000000  0.000000  0.000000  0.000000
                       prtocc : prtvol=0, do not print more k-points.
           occopt           6
          optcell           1
           prtden           0
           prtdos           2
        prtposcar           1
            prtwf           0
            rprim      0.0000000000E+00  2.0025000000E+00  2.0025000000E+00
                       2.0025000000E+00  0.0000000000E+00  2.0025000000E+00
                       2.0025000000E+00  2.0025000000E+00  0.0000000000E+00
          spgroup         225
           strten     -1.5423849264E-12 -1.5423851432E-12 -1.5423852516E-12
                       0.0000000000E+00  0.0000000000E+00  0.0000000000E+00
           symrel      1  0  0   0  1  0   0  0  1      -1  0  0   0 -1  0   0  0 -1
                       0 -1  1   0 -1  0   1 -1  0       0  1 -1   0  1  0  -1  1  0
                      -1  0  0  -1  0  1  -1  1  0       1  0  0   1  0 -1   1 -1  0
                       0  1 -1   1  0 -1   0  0 -1       0 -1  1  -1  0  1   0  0  1
                      -1  0  0  -1  1  0  -1  0  1       1  0  0   1 -1  0   1  0 -1
                       0 -1  1   1 -1  0   0 -1  0       0  1 -1  -1  1  0   0  1  0
                       1  0  0   0  0  1   0  1  0      -1  0  0   0  0 -1   0 -1  0
                       0  1 -1   0  0 -1   1  0 -1       0 -1  1   0  0  1  -1  0  1
                      -1  0  1  -1  1  0  -1  0  0       1  0 -1   1 -1  0   1  0  0
                       0 -1  0   1 -1  0   0 -1  1       0  1  0  -1  1  0   0  1 -1
                       1  0 -1   0  0 -1   0  1 -1      -1  0  1   0  0  1   0 -1  1
                       0  1  0   0  0  1   1  0  0       0 -1  0   0  0 -1  -1  0  0
                       1  0 -1   0  1 -1   0  0 -1      -1  0  1   0 -1  1   0  0  1
                       0 -1  0   0 -1  1   1 -1  0       0  1  0   0  1 -1  -1  1  0
                      -1  0  1  -1  0  0  -1  1  0       1  0 -1   1  0  0   1 -1  0
                       0  1  0   1  0  0   0  0  1       0 -1  0  -1  0  0   0  0 -1
                       0  0 -1   0  1 -1   1  0 -1       0  0  1   0 -1  1  -1  0  1
                       1 -1  0   0 -1  1   0 -1  0      -1  1  0   0  1 -1   0  1  0
                       0  0  1   1  0  0   0  1  0       0  0 -1  -1  0  0   0 -1  0
                      -1  1  0  -1  0  0  -1  0  1       1 -1  0   1  0  0   1  0 -1
                       0  0  1   0  1  0   1  0  0       0  0 -1   0 -1  0  -1  0  0
                       1 -1  0   0 -1  0   0 -1  1      -1  1  0   0  1  0   0  1 -1
                       0  0 -1   1  0 -1   0  1 -1       0  0  1  -1  0  1   0 -1  1
                      -1  1  0  -1  0  1  -1  0  0       1 -1  0   1  0 -1   1  0  0
           toldfe      3.67493254E-08 Hartree
           tolmxf      1.00000000E-08
           tsmear      7.34986508E-03 Hartree
            typat      1
          usekden           1
              wtk        0.00006    0.00051    0.00051    0.00051    0.00051    0.00051
                         0.00051    0.00051    0.00051    0.00051    0.00051    0.00051
                         0.00051    0.00038    0.00154    0.00154    0.00154    0.00154
                         0.00154    0.00154    0.00154    0.00154    0.00154    0.00154
                         0.00154    0.00154    0.00154    0.00154    0.00154    0.00154
                         0.00154    0.00154    0.00154    0.00154    0.00154    0.00154
                         0.00077    0.00038    0.00154    0.00154    0.00154    0.00154
                         0.00154    0.00154    0.00154    0.00154    0.00154    0.00154
                         0.00154    0.00154
                       outvars : Printing only first  50 k-points.
            znucl       13.00000

 Suggested references for the acknowledgment of ABINIT usage.

 M.A.L. Marques, M.J.T. Oliveira, T. Burnus, Computer Physics Communications 183, 2227 (2012).
 Strong suggestion to cite this paper.

 [2] Ab initio pseudopotentials for electronic structure calculations of poly-atomic systems,
 using density-functional theory.
 M. Fuchs, M. Scheffler, Comput. Phys. Commun. 119, 67 (1999).
 Comment : Some pseudopotential generated using the FHI code were used.

 [3] ABINIT : First-principles approach of materials and nanosystem properties.
 X. Gonze, B. Amadon, P.-M. Anglade, J.-M. Beuken, F. Bottin, P. Boulanger, F. Bruneval,
 D. Caliste, R. Caracas, M. Cote, T. Deutsch, L. Genovese, Ph. Ghosez, M. Giantomassi
 S. Goedecker, D.R. Hamann, P. Hermet, F. Jollet, G. Jomard, S. Leroux, M. Mancini, S. Mazevet,
 M.J.T. Oliveira, G. Onida, Y. Pouillon, T. Rangel, G.-M. Rignanese, D. Sangalli, R. Shaltaf,
 M. Torrent, M.J. Verstraete, G. Zerah, J.W. Zwanziger
 Computer Phys. Comm. 180, 2582-2615 (2009).
 Comment : the third generic paper describing the ABINIT project.
 Note that a version of this paper, that is not formatted for Computer Phys. Comm.
 The licence allows the authors to put it on the Web.

 [4] A brief introduction to the ABINIT software package.
 X. Gonze, G.-M. Rignanese, M. Verstraete, J.-M. Beuken, Y. Pouillon, R. Caracas, F. Jollet,
 M. Torrent, G. Zerah, M. Mikami, Ph. Ghosez, M. Veithen, J.-Y. Raty, V. Olevano, F. Bruneval,
 L. Reining, R. Godby, G. Onida, D.R. Hamann, and D.C. Allan.
 Z. Kristallogr. 220, 558-562 (2005).
 Comment : the second generic paper describing the ABINIT project. Note that this paper
 should be cited especially if you are using the GW part of ABINIT, as several authors
 of this part are not in the list of authors of the first or third paper.
 Note that it should not redistributed (Copyright by Oldenburg Wissenshaftverlag,
 the licence allows the authors to put it on the Web).

 And optionally :

 [5] First-principles computation of material properties : the ABINIT software project.
 X. Gonze, J.-M. Beuken, R. Caracas, F. Detraux, M. Fuchs, G.-M. Rignanese, L. Sindic,
 M. Verstraete, G. Zerah, F. Jollet, M. Torrent, A. Roy, M. Mikami, Ph. Ghosez, J.-Y. Raty, D.C. Allan.
 Comment : the original paper describing the ABINIT project.

 Calculation completed.
.Delivered    0 WARNINGs and  11 COMMENTs to log file.
--- !FinalSummary
start_date: Mon Dec  5 13:26:16 2016
end_date: Mon Dec  5 13:54:50 2016
overall_cpu_time:       13717.2
overall_wall_time:       13710.1
...