.Version 8.0.7 of ABINIT
.(sequential version, prepared for a x86_64_linux_gnu4.8 computer)

 ABINIT is a project of the Universite Catholique de Louvain,
 Corning Inc. and other collaborators, see ~abinit/doc/developers/contributors.txt .
 Please read ~abinit/doc/users/acknowledgments.html for suggested
 acknowledgments of the ABINIT effort.

.Starting date : Mon  1 Aug 2016.
- ( at 13h38 )

- input  file    -> AgN3.in
- output file    -> AgN3.out
- root for input  files -> ./
- root for output files -> ./AgN3

 DATASET    1 : space group Ib a m (# 72); Bravais oI (body-center ortho.)
     intxc =       0    ionmov =       0      iscf =       7    lmnmax =       4
     lnmax =       4     mgfft =      60  mpssoang =       4    mqgrid =    3001
     natom =       8  nloc_mem =       1    nspden =       1   nspinor =       1
    nsppol =       1      nsym =       8    n1xccc =       0    ntypat =       2
    occopt =       1   xclevel =       1
-    mband =          27        mffmem =           1         mkmem =           1
       mpw =        4056          nfft =      216000          nkpt =           1
  Rough estimation (10% accuracy) of disk space for files :

 DATASET    2 : space group Ib a m (# 72); Bravais oI (body-center ortho.)
     intxc =       0    ionmov =       0      iscf =      -2    lmnmax =       4
     lnmax =       4     mgfft =      60  mpssoang =       4    mqgrid =    3001
     natom =       8  nloc_mem =       1    nspden =       1   nspinor =       1
    nsppol =       1      nsym =       8    n1xccc =       0    ntypat =       2
    occopt =       1   xclevel =       1
-    mband =          27        mffmem =           1         mkmem =          31
       mpw =        8209          nfft =      216000          nkpt =          31
  Rough estimation (10% accuracy) of disk space for files :

------------- Echo of variables that govern the present computation ------------
-
- outvars: echo of selected default values
-   iomode0 =  0 , fftalg0 =112 , wfoptalg0 =  0
-
- outvars: echo of global parameters not present in the input file
-  max_nthreads =    0
-
 -outvars: echo values of preprocessed input variables --------
            acell      1.0000000000E+00  1.0000000000E+00  1.0000000000E+00 Bohr
              amu      1.40067400E+01  1.07868200E+02
           diemac      3.00000000E+00
             ecut      4.00000000E+01 Hartree
           enunit1          0
           enunit2          1
-          fftalg         112
           getden1          0
           getden2         -1
             iscf1          7
             iscf2         -2
           istwfk1       9
           istwfk2       2    0    0    0    0    0    0    0    0    0
                         0    0    0    0    0    0    2    0    0    0
                         0    0    0    0    0    0    0    3    0    0
                         0
              ixc           7
           jdtset        1    2
              kpt1     5.00000000E-01  5.00000000E-01  5.00000000E-01
              kpt2     0.00000000E+00  0.00000000E+00  0.00000000E+00
                      -2.33961518E-01  2.33961518E-01  2.33961518E-01
                      -4.67923036E-01  4.67923036E-01  4.67923036E-01
                      -2.18672160E-01  2.18672160E-01  4.68672160E-01
                       3.05787157E-02 -3.05787157E-02  4.69421284E-01
                       1.52893579E-02 -1.52893579E-02  7.34710642E-01
                       0.00000000E+00  0.00000000E+00  1.00000000E+00
                       1.25000000E-01  1.25000000E-01  3.75000000E-01
                       2.50000000E-01  2.50000000E-01 -2.50000000E-01
                       1.25000000E-01  6.25000000E-01 -1.25000000E-01
                       0.00000000E+00  1.00000000E+00  0.00000000E+00
                       2.33961518E-01  7.66038482E-01 -2.33961518E-01
                       4.67923036E-01  5.32076964E-01 -4.67923036E-01
                       4.83961518E-01  5.16038482E-01 -4.83961518E-01
                       5.00000000E-01  5.00000000E-01 -5.00000000E-01
                       2.50000000E-01  2.50000000E-01 -2.50000000E-01
                       0.00000000E+00  0.00000000E+00  0.00000000E+00
                       2.49250876E-01 -2.49250876E-01  2.49250876E-01
                       4.98501751E-01 -4.98501751E-01  4.98501751E-01
                       7.49250876E-01 -2.49250876E-01  2.49250876E-01
                       1.00000000E+00  0.00000000E+00  0.00000000E+00
                       6.25000000E-01  1.25000000E-01 -1.25000000E-01
                       2.50000000E-01  2.50000000E-01 -2.50000000E-01
                       1.09710642E-01  1.40289358E-01  1.40289358E-01
                      -3.05787157E-02  3.05787157E-02  5.30578716E-01
                       2.33961518E-01 -2.33961518E-01  5.14540234E-01
                       4.98501751E-01 -4.98501751E-01  4.98501751E-01
                       5.00000000E-01  0.00000000E+00  0.00000000E+00
                       5.01498249E-01  4.98501751E-01 -4.98501751E-01
                       5.00749124E-01  4.99250876E-01 -4.99250876E-01
                       5.00000000E-01  5.00000000E-01 -5.00000000E-01
           kptopt1          1
           kptopt2        -15
         kptrlatt        1    0    0      0    1    0      0    0    1
          kptrlen1     9.59379937E+00
          kptrlen2     3.00000000E+01
P           mkmem1          1
P           mkmem2         31
            natom           8
            nband1         27
            nband2         27
           nbdbuf1          0
           nbdbuf2          2
           ndtset           2
            ngfft          60      60      60
             nkpt1          1
             nkpt2         31
             nsym           8
           ntypat           2
              occ      2.000000  2.000000  2.000000  2.000000  2.000000  2.000000
                       2.000000  2.000000  2.000000  2.000000  2.000000  2.000000
                       2.000000  2.000000  2.000000  2.000000  2.000000  2.000000
                       2.000000  2.000000  2.000000  2.000000  2.000000  2.000000
                       2.000000  2.000000  0.000000
            rprim     -5.2912331721E+00  5.6502811373E+00  5.6672886725E+00
                       5.2912331721E+00 -5.6502811373E+00  5.6672886725E+00
                       5.2912331721E+00  5.6502811373E+00 -5.6672886725E+00
           shiftk      5.00000000E-01  5.00000000E-01  5.00000000E-01
          spgroup          72
           symrel      1  0  0   0  1  0   0  0  1      -1  0  0   0 -1  0   0  0 -1
                      -1 -1 -1   0  0  1   0  1  0       1  1  1   0  0 -1   0 -1  0
                       0  1  0   1  0  0  -1 -1 -1       0 -1  0  -1  0  0   1  1  1
                       0  0  1  -1 -1 -1   1  0  0       0  0 -1   1  1  1  -1  0  0
            tnons      0.0000000  0.0000000  0.0000000     0.0000000  0.0000000  0.0000000
                       0.5000000  0.5000000  0.0000000     0.5000000  0.5000000 -0.0000000
                       0.0000000  0.0000000  0.0000000     0.0000000  0.0000000 -0.0000000
                       0.5000000  0.5000000  0.0000000     0.5000000  0.5000000 -0.0000000
           toldfe1     1.00000000E-10 Hartree
           toldfe2     0.00000000E+00 Hartree
           tolwfr1     0.00000000E+00
           tolwfr2     1.00000000E-12
            typat      2  2  1  1  1  1  1  1
              wtk1       1.00000
              wtk2       1.00000    1.00000    1.00000    1.00000    1.00000    1.00000
                         1.00000    1.00000    1.00000    1.00000    1.00000    1.00000
                         1.00000    1.00000    1.00000    1.00000    1.00000    1.00000
                         1.00000    1.00000    1.00000    1.00000    1.00000    1.00000
                         1.00000    1.00000    1.00000    1.00000    1.00000    1.00000
                         1.00000
           xangst      1.3923782478E-17  1.4868610575E-17  1.4995000000E+00
                       1.0798843473E-16 -2.4515988964E-16  4.4985000000E+00
                       1.9163200000E+00  7.9354600000E-01 -4.2999057259E-17
                       2.8000000000E+00  0.0000000000E+00  0.0000000000E+00
                      -1.9163200000E+00 -7.9354600000E-01  4.2999057259E-17
                       8.8368000000E-01  3.7835460000E+00 -5.4712465275E-17
                       0.0000000000E+00  2.9900000000E+00  0.0000000000E+00
                      -8.8368000000E-01 -3.7835460000E+00  5.4712465275E-17
            xcart      2.6312135617E-17  2.8097601963E-17  2.8336443363E+00
                       2.0406856715E-16 -4.6328505019E-16  8.5009330088E+00
                       3.6213199830E+00  1.4995846138E+00 -8.1256442191E-17
                       5.2912331721E+00  0.0000000000E+00  0.0000000000E+00
                      -3.6213199830E+00 -1.4995846138E+00  8.1256442191E-17
                       1.6699131891E+00  7.1498657512E+00 -1.0339157542E-16
                       0.0000000000E+00  5.6502811373E+00  0.0000000000E+00
                      -1.6699131891E+00 -7.1498657512E+00  1.0339157542E-16
             xred      2.5000000000E-01  2.5000000000E-01  4.9727794564E-18
                       7.5000000000E-01  7.5000000000E-01 -3.3973248179E-18
                       1.3270000000E-01  3.4220000000E-01  4.7490000000E-01
                       1.6451938861E-17  5.0000000000E-01  5.0000000000E-01
                      -1.3270000000E-01 -3.4220000000E-01 -4.7490000000E-01
                       6.3270000000E-01  1.5780000000E-01  7.9050000000E-01
                       5.0000000000E-01  1.3332590387E-17  5.0000000000E-01
                      -6.3270000000E-01 -1.5780000000E-01 -7.9050000000E-01
            znucl        7.00000   47.00000

 chkinp: Checking input parameters for consistency, jdtset=   1.

 chkinp: Checking input parameters for consistency, jdtset=   2.

== DATASET  1 ==================================================================
-   nproc =    1

 Real(R)+Recip(G) space primitive vectors, cartesian coordinates (Bohr,Bohr^-1):
 R(1)= -5.2912332  5.6502811  5.6672887  G(1)=  0.0000000  0.0884912  0.0882256
 R(2)=  5.2912332 -5.6502811  5.6672887  G(2)=  0.0944959  0.0000000  0.0882256
 R(3)=  5.2912332  5.6502811 -5.6672887  G(3)=  0.0944959  0.0884912  0.0000000
 Unit cell volume ucvol=  6.7773870E+02 bohr^3
 Angles (23,13,12)=  1.13056419E+02  1.07834743E+02  1.07583179E+02 degrees

 getcut: wavevector=  0.0000  0.0000  0.0000  ngfft=  60  60  60
         ecut(hartree)=     40.000   => boxcut(ratio)=   2.19677

--- Pseudopotential description ------------------------------------------------
- pspini: atom type   1  psp file is ../../../07-N.LDA.fhi
- pspatm: opening atomic psp file    ../../../07-N.LDA.fhi
- nitrogen, fhi98PP : Trouiller-Martins-type, LDA Ceperley/Alder Perdew/Wang (1992), l= 2 local
-  7.00000   5.00000     21003                znucl, zion, pspdat
    6    7    3    2       467   0.00000      pspcod,pspxc,lmax,lloc,mmax,r2well
    0.00000000000000    0.00000000000000    0.00000000000000   rchrg,fchrg,qchrg
  1.024700          amesh (Hamman grid)
 pspatm: epsatm=    3.09177938
[...]
 -23.37089  -23.22679  -19.30817  -19.28971   -9.10561   -8.53996   -8.44683   -7.76862
  -7.48666   -7.01398   -6.68039   -6.08783   -5.70886   -4.20766   -3.99310   -3.93356
  -3.90884   -3.83175   -3.82938   -3.73315   -3.69163   -3.67032   -3.30290   -1.66509
  -1.40274   -1.17972    1.21960
 kpt#  16, nband= 27, wtk=  1.00000, kpt=  0.2500  0.2500 -0.2500 (reduced coord)
 -23.36454  -23.25468  -19.28527  -19.28409   -8.64657   -8.44564   -8.44384   -7.90406
  -7.82247   -7.71427   -6.57600   -6.14612   -4.88260   -4.20672   -4.06941   -4.04907
  -3.91555   -3.82283   -3.73909   -3.64184   -3.55221   -3.38540   -3.36090   -1.92950
  -1.72336   -1.13793    1.16856
 kpt#  17, nband= 27, wtk=  1.00000, kpt=  0.0000  0.0000  0.0000 (reduced coord)
 -23.49615  -23.13360  -19.27906  -19.26260   -8.82933   -8.64701   -8.43619   -8.32710
  -7.97354   -7.02949   -6.51069   -6.22139   -4.95153   -4.34207   -3.87515   -3.69041
  -3.57276   -3.53298   -3.50741   -3.25605   -3.25405   -3.12239   -3.03878   -2.97619
  -2.49244   -0.92622    1.32154
 kpt#  18, nband= 27, wtk=  1.00000, kpt=  0.2493 -0.2493  0.2493 (reduced coord)
 -23.43267  -23.18064  -19.29233  -19.27953   -9.05866   -8.84404   -8.64770   -7.48130
  -7.22875   -7.03059   -6.67541   -6.63211   -5.12599   -4.47421   -4.15026   -4.04321
  -3.97599   -3.66466   -3.54272   -3.39956   -3.39370   -3.34206   -2.73406   -2.19953
  -1.77539   -1.63502    2.00002
 kpt#  19, nband= 27, wtk=  1.00000, kpt=  0.4985 -0.4985  0.4985 (reduced coord)
 -23.37089  -23.22679  -19.30817  -19.28971   -9.10560   -8.54001   -8.44686   -7.76858
  -7.48660   -7.01398   -6.68042   -6.08785   -5.70882   -4.20772   -3.99312   -3.93360
  -3.90884   -3.83170   -3.82933   -3.73314   -3.69164   -3.67031   -3.30291   -1.66511
  -1.40273   -1.17974    1.21966
 kpt#  20, nband= 27, wtk=  1.00000, kpt=  0.7493 -0.2493  0.2493 (reduced coord)
 -23.36454  -23.25469  -19.28527  -19.28410   -8.64660   -8.44562   -8.44385   -7.90406
  -7.82246   -7.71425   -6.57601   -6.14613   -4.88260   -4.20673   -4.06942   -4.04907
  -3.91553   -3.82284   -3.73910   -3.64182   -3.55221   -3.38541   -3.36088   -1.92950
  -1.72337   -1.13795    1.16857
 kpt#  21, nband= 27, wtk=  1.00000, kpt=  1.0000  0.0000  0.0000 (reduced coord)
 -23.49615  -23.13360  -19.27906  -19.26260   -8.82933   -8.64701   -8.43619   -8.32710
  -7.97354   -7.02949   -6.51069   -6.22139   -4.95153   -4.34207   -3.87515   -3.69041
  -3.57276   -3.53298   -3.50741   -3.25605   -3.25405   -3.12239   -3.03878   -2.97619
  -2.49244   -0.92622    1.32154
 kpt#  22, nband= 27, wtk=  1.00000, kpt=  0.6250  0.1250 -0.1250 (reduced coord)
 -23.39683  -23.21908  -19.29037  -19.28131   -9.00047   -8.75986   -8.56789   -7.51908
  -7.24596   -7.23888   -6.68286   -6.64864   -4.95042   -4.52195   -4.16785   -4.15117
  -3.96935   -3.65590   -3.59652   -3.53183   -3.37434   -3.32764   -2.55554   -2.08880
  -1.94277   -1.66390    2.00480
 kpt#  23, nband= 27, wtk=  1.00000, kpt=  0.2500  0.2500 -0.2500 (reduced coord)
 -23.36454  -23.25468  -19.28527  -19.28409   -8.64657   -8.44564   -8.44384   -7.90406
  -7.82247   -7.71427   -6.57600   -6.14612   -4.88260   -4.20672   -4.06941   -4.04907
  -3.91555   -3.82283   -3.73909   -3.64184   -3.55221   -3.38540   -3.36090   -1.92950
  -1.72336   -1.13793    1.16856
 kpt#  24, nband= 27, wtk=  1.00000, kpt=  0.1097  0.1403  0.1403 (reduced coord)
 -23.42144  -23.19656  -19.29695  -19.27325   -9.02663   -8.48586   -8.43236   -8.09834
  -7.34447   -7.19920   -6.90997   -6.28731   -4.75358   -4.71865   -4.27024   -4.09242
  -3.97656   -3.63262   -3.59333   -3.49961   -3.33879   -3.27911   -2.16548   -1.96271
  -1.90693   -1.60288    1.08651
 kpt#  25, nband= 27, wtk=  1.00000, kpt= -0.0306  0.0306  0.5306 (reduced coord)
 -23.42576  -23.18105  -19.32121  -19.26774   -8.92435   -8.73784   -8.35536   -7.97594
  -7.79580   -7.06505   -6.43163   -6.12756   -5.12442   -4.93766   -4.61264   -4.10119
  -3.55162   -3.52421   -3.49920   -3.44122   -3.41741   -3.36439   -2.83134   -1.95796
  -1.31090   -0.75278    0.82877
 kpt#  26, nband= 27, wtk=  1.00000, kpt=  0.2340 -0.2340  0.5145 (reduced coord)
 -23.40115  -23.20179  -19.31470  -19.27784   -8.90986   -8.75603   -8.65461   -7.77970
  -7.30032   -7.04556   -6.55410   -6.39869   -5.16089   -4.69628   -4.32219   -4.02680
  -3.72914   -3.63291   -3.60827   -3.59702   -3.48439   -3.45449   -3.42362   -1.82277
  -1.29982   -1.00650    2.07955
 kpt#  27, nband= 27, wtk=  1.00000, kpt=  0.4985 -0.4985  0.4985 (reduced coord)
 -23.37089  -23.22679  -19.30817  -19.28971   -9.10560   -8.54001   -8.44686   -7.76858
  -7.48660   -7.01398   -6.68042   -6.08785   -5.70882   -4.20772   -3.99312   -3.93360
  -3.90884   -3.83170   -3.82933   -3.73314   -3.69164   -3.67031   -3.30291   -1.66511
  -1.40273   -1.17974    1.21966
 kpt#  28, nband= 27, wtk=  1.00000, kpt=  0.5000  0.0000  0.0000 (reduced coord)
 -23.30933  -23.30933  -19.28570  -19.28570   -8.86704   -8.86704   -8.03644   -8.03644
  -7.28010   -7.28010   -6.67994   -6.67994   -4.60772   -4.60772   -4.26847   -4.26847
  -3.85836   -3.85836   -3.63669   -3.63669   -3.32521   -3.32521   -2.21510   -2.21510
  -1.85499   -1.85499    2.02499
 kpt#  29, nband= 27, wtk=  1.00000, kpt=  0.5015  0.4985 -0.4985 (reduced coord)
 -23.37089  -23.22679  -19.30817  -19.28971   -9.10560   -8.54001   -8.44686   -7.76858
  -7.48660   -7.01398   -6.68042   -6.08785   -5.70882   -4.20772   -3.99312   -3.93360
  -3.90884   -3.83170   -3.82933   -3.73314   -3.69164   -3.67031   -3.30291   -1.66511
  -1.40273   -1.17974    1.21966
 kpt#  30, nband= 27, wtk=  1.00000, kpt=  0.5007  0.4993 -0.4993 (reduced coord)
 -23.37089  -23.22679  -19.30817  -19.28971   -9.10561   -8.53997   -8.44684   -7.76861
  -7.48664   -7.01398   -6.68040   -6.08783   -5.70885   -4.20767   -3.99311   -3.93357
  -3.90884   -3.83174   -3.82937   -3.73315   -3.69163   -3.67032   -3.30291   -1.66509
  -1.40274   -1.17972    1.21961
 kpt#  31, nband= 27, wtk=  1.00000, kpt=  0.5000  0.5000 -0.5000 (reduced coord)
 -23.37089  -23.22679  -19.30817  -19.28971   -9.10561   -8.53996   -8.44683   -7.76862
  -7.48666   -7.01398   -6.68039   -6.08783   -5.70886   -4.20766   -3.99310   -3.93356
  -3.90884   -3.83175   -3.82938   -3.73315   -3.69163   -3.67032   -3.30290   -1.66509
  -1.40274   -1.17972    1.21960

== END DATASET(S) ==============================================================

 -outvars: echo values of variables after computation  --------
            acell      1.0000000000E+00  1.0000000000E+00  1.0000000000E+00 Bohr
              amu      1.40067400E+01  1.07868200E+02
           diemac      3.00000000E+00
             ecut      4.00000000E+01 Hartree
           enunit1          0
           enunit2          1
           etotal1    -1.3204928925E+02
            fcart1    -0.0000000000E+00  4.3368086899E-19  6.1218814718E-19
                      -0.0000000000E+00  4.3368086899E-19  6.1218814718E-19
                       3.0278089250E-02 -2.6933187469E-02 -7.1767939221E-19
                      -0.0000000000E+00  4.3368086899E-19  6.1218814718E-19
                      -3.0278089250E-02  2.6933187469E-02 -2.9554494909E-18
                      -3.0278089250E-02 -2.6933187469E-02 -1.2326864558E-19
                      -0.0000000000E+00  4.3368086899E-19  6.1218814718E-19
                       3.0278089250E-02  2.6933187469E-02  1.3476449399E-18
-          fftalg         112
           getden1          0
           getden2         -1
             iscf1          7
             iscf2         -2
           istwfk1       9
           istwfk2       2    0    0    0    0    0    0    0    0    0
                         0    0    0    0    0    0    2    0    0    0
                         0    0    0    0    0    0    0    3    0    0
                         0
              ixc           7
           jdtset        1    2
              kpt1     5.00000000E-01  5.00000000E-01  5.00000000E-01
              kpt2     0.00000000E+00  0.00000000E+00  0.00000000E+00
                      -2.33961518E-01  2.33961518E-01  2.33961518E-01
                      -4.67923036E-01  4.67923036E-01  4.67923036E-01
                      -2.18672160E-01  2.18672160E-01  4.68672160E-01
                       3.05787157E-02 -3.05787157E-02  4.69421284E-01
                       1.52893579E-02 -1.52893579E-02  7.34710642E-01
                       0.00000000E+00  0.00000000E+00  1.00000000E+00
                       1.25000000E-01  1.25000000E-01  3.75000000E-01
                       2.50000000E-01  2.50000000E-01 -2.50000000E-01
                       1.25000000E-01  6.25000000E-01 -1.25000000E-01
                       0.00000000E+00  1.00000000E+00  0.00000000E+00
                       2.33961518E-01  7.66038482E-01 -2.33961518E-01
                       4.67923036E-01  5.32076964E-01 -4.67923036E-01
                       4.83961518E-01  5.16038482E-01 -4.83961518E-01
                       5.00000000E-01  5.00000000E-01 -5.00000000E-01
                       2.50000000E-01  2.50000000E-01 -2.50000000E-01
                       0.00000000E+00  0.00000000E+00  0.00000000E+00
                       2.49250876E-01 -2.49250876E-01  2.49250876E-01
                       4.98501751E-01 -4.98501751E-01  4.98501751E-01
                       7.49250876E-01 -2.49250876E-01  2.49250876E-01
                       1.00000000E+00  0.00000000E+00  0.00000000E+00
                       6.25000000E-01  1.25000000E-01 -1.25000000E-01
                       2.50000000E-01  2.50000000E-01 -2.50000000E-01
                       1.09710642E-01  1.40289358E-01  1.40289358E-01
                      -3.05787157E-02  3.05787157E-02  5.30578716E-01
                       2.33961518E-01 -2.33961518E-01  5.14540234E-01
                       4.98501751E-01 -4.98501751E-01  4.98501751E-01
                       5.00000000E-01  0.00000000E+00  0.00000000E+00
                       5.01498249E-01  4.98501751E-01 -4.98501751E-01
                       5.00749124E-01  4.99250876E-01 -4.99250876E-01
                       5.00000000E-01  5.00000000E-01 -5.00000000E-01
           kptopt1          1
           kptopt2        -15
         kptrlatt        1    0    0      0    1    0      0    0    1
          kptrlen1     9.59379937E+00
          kptrlen2     3.00000000E+01
P           mkmem1          1
P           mkmem2         31
            natom           8
            nband1         27
            nband2         27
           nbdbuf1          0
           nbdbuf2          2
           ndtset           2
            ngfft          60      60      60
             nkpt1          1
             nkpt2         31
             nsym           8
           ntypat           2
              occ      2.000000  2.000000  2.000000  2.000000  2.000000  2.000000
                       2.000000  2.000000  2.000000  2.000000  2.000000  2.000000
                       2.000000  2.000000  2.000000  2.000000  2.000000  2.000000
                       2.000000  2.000000  2.000000  2.000000  2.000000  2.000000
                       2.000000  2.000000  0.000000
            rprim     -5.2912331721E+00  5.6502811373E+00  5.6672886725E+00
                       5.2912331721E+00 -5.6502811373E+00  5.6672886725E+00
                       5.2912331721E+00  5.6502811373E+00 -5.6672886725E+00
           shiftk      5.00000000E-01  5.00000000E-01  5.00000000E-01
          spgroup          72
           strten1     5.8043929168E-04  4.2705918961E-04  4.1228870223E-04
                       0.0000000000E+00  0.0000000000E+00  0.0000000000E+00
           symrel      1  0  0   0  1  0   0  0  1      -1  0  0   0 -1  0   0  0 -1
                      -1 -1 -1   0  0  1   0  1  0       1  1  1   0  0 -1   0 -1  0
                       0  1  0   1  0  0  -1 -1 -1       0 -1  0  -1  0  0   1  1  1
                       0  0  1  -1 -1 -1   1  0  0       0  0 -1   1  1  1  -1  0  0
            tnons      0.0000000  0.0000000  0.0000000     0.0000000  0.0000000  0.0000000
                       0.5000000  0.5000000  0.0000000     0.5000000  0.5000000 -0.0000000
                       0.0000000  0.0000000  0.0000000     0.0000000  0.0000000 -0.0000000
                       0.5000000  0.5000000  0.0000000     0.5000000  0.5000000 -0.0000000
           toldfe1     1.00000000E-10 Hartree
           toldfe2     0.00000000E+00 Hartree
           tolwfr1     0.00000000E+00
           tolwfr2     1.00000000E-12
            typat      2  2  1  1  1  1  1  1
              wtk1       1.00000
              wtk2       1.00000    1.00000    1.00000    1.00000    1.00000    1.00000
                         1.00000    1.00000    1.00000    1.00000    1.00000    1.00000
                         1.00000    1.00000    1.00000    1.00000    1.00000    1.00000
                         1.00000    1.00000    1.00000    1.00000    1.00000    1.00000
                         1.00000    1.00000    1.00000    1.00000    1.00000    1.00000
                         1.00000
           xangst      1.3923782478E-17  1.4868610575E-17  1.4995000000E+00
                       1.0798843473E-16 -2.4515988964E-16  4.4985000000E+00
                       1.9163200000E+00  7.9354600000E-01 -4.2999057259E-17
                       2.8000000000E+00  0.0000000000E+00  0.0000000000E+00
                      -1.9163200000E+00 -7.9354600000E-01  4.2999057259E-17
                       8.8368000000E-01  3.7835460000E+00 -5.4712465275E-17
                       0.0000000000E+00  2.9900000000E+00  0.0000000000E+00
                      -8.8368000000E-01 -3.7835460000E+00  5.4712465275E-17
            xcart      2.6312135617E-17  2.8097601963E-17  2.8336443363E+00
                       2.0406856715E-16 -4.6328505019E-16  8.5009330088E+00
                       3.6213199830E+00  1.4995846138E+00 -8.1256442191E-17
                       5.2912331721E+00  0.0000000000E+00  0.0000000000E+00
                      -3.6213199830E+00 -1.4995846138E+00  8.1256442191E-17
                       1.6699131891E+00  7.1498657512E+00 -1.0339157542E-16
                       0.0000000000E+00  5.6502811373E+00  0.0000000000E+00
                      -1.6699131891E+00 -7.1498657512E+00  1.0339157542E-16
             xred      2.5000000000E-01  2.5000000000E-01  4.9727794564E-18
                       7.5000000000E-01  7.5000000000E-01 -3.3973248179E-18
                       1.3270000000E-01  3.4220000000E-01  4.7490000000E-01
                       1.6451938861E-17  5.0000000000E-01  5.0000000000E-01
                      -1.3270000000E-01 -3.4220000000E-01 -4.7490000000E-01
                       6.3270000000E-01  1.5780000000E-01  7.9050000000E-01
                       5.0000000000E-01  1.3332590387E-17  5.0000000000E-01
                      -6.3270000000E-01 -1.5780000000E-01 -7.9050000000E-01
            znucl        7.00000   47.00000

-
-  as well as % of the time and number of calls for node 0-
-<BEGIN_TIMER mpi_nprocs = 1, omp_nthreads = 1, mpi_rank = 0>
- cpu_time =         3650.3, wall_time =         1459.3
-
-                                                                  (-1=no count)
- fourwf%(pot)                1573.319  43.1    600.239  41.1          40884      -1.00
- nonlop(apply)               1057.391  29.0    429.398  29.4          40884      -1.00
- projbd                       600.861  16.5    237.932  16.3          61680      -1.00
- vtowfk(ssdiag)                69.737   1.9     27.790   1.9             -1      -1.00
- getghc-other                  22.906   0.6      7.641   0.5             -1      -1.00
- others (107)                  17.111   0.5      7.431   0.5             -1      -1.00
-<END_TIMER>
-
- subtotal                    3341.324  91.5   1310.431  89.8

- as well as % of the total time and number of calls

-<BEGIN_TIMER mpi_nprocs = 1, omp_nthreads = 1, mpi_rank = world>
- cpu_time =        3650.3, wall_time =        1459.3
-
-                                                                  (-1=no count)
- fourwf%(pot)                1573.319  43.1    600.239  41.1          40884      -1.00
- nonlop(apply)               1057.391  29.0    429.398  29.4          40884      -1.00
- projbd                       600.861  16.5    237.932  16.3          61680      -1.00
- vtowfk(ssdiag)                69.737   1.9     27.790   1.9             -1      -1.00
- getghc-other                  22.906   0.6      7.641   0.5             -1      -1.00
- others (107)                  17.111   0.5      7.431   0.5             -1      -1.00
-<END_TIMER>

- subtotal                    3341.324  91.5   1310.431  89.8

 Suggested references for the acknowledgment of ABINIT usage.

 Calculation completed.
.Delivered   2 WARNINGs and   0 COMMENTs to log file.