.Version 6.0.1  of ABINIT

 ABINIT is a project of the Universite Catholique de Louvain,
 Corning Inc. and other collaborators, see ~abinit/doc/developers/contributors.txt .
 Please read ~abinit/doc/users/acknowledgments.html for suggested
 acknowledgments of the ABINIT effort.

.Starting date : Tue  9 Nov 2010.

- input  file    -> tgw2_1.in
- output file    -> tgw2_1.out
- root for input  files -> tgw2i
- root for output files -> tgw2o

 Symmetries : space group Pm m m (# 47); Bravais oP (primitive ortho.)
   intxc =         0  ionmov =         0    iscf =         5 xclevel =         2
  lmnmax =         4   lnmax =         4   mband =       100  mffmem =         1
P  mgfft =        72   mkmem =         1 mpssoang=         4     mpw =      3633
  mqgrid =      3001   natom =         7    nfft =     64800    nkpt =        13
  nloalg =         4  nspden =         2 nspinor =         1  nsppol =         2
    nsym =         8  n1xccc =      2501  ntypat =         3  occopt =         1
  Rough estimation (10% accuracy) of disk space for files :

 -outvars: echo values of preprocessed input variables --------
            acell    1.0212836000E+01  1.0375352000E+01  2.2583550000E+01 Bohr
              amu    1.01070000E+02  8.76200000E+01  1.59994000E+01
             ecut    1.00000000E+01 Hartree
           enunit         1
           gwpara         2
             iscf         5
           istwfk      1    0    0    0    1    0    0    0    0    0
                       1    0    1
              ixc        11
              kpt    0.00000000E+00  0.00000000E+00  0.00000000E+00
                     1.25000000E-01  1.25000000E-01  0.00000000E+00
                     2.50000000E-01  0.00000000E+00  0.00000000E+00
                     3.75000000E-01  1.25000000E-01  0.00000000E+00
                     5.00000000E-01  0.00000000E+00  0.00000000E+00
                     0.00000000E+00  2.50000000E-01  0.00000000E+00
                     1.25000000E-01  3.75000000E-01  0.00000000E+00
                     2.50000000E-01  2.50000000E-01  0.00000000E+00
                     3.75000000E-01  3.75000000E-01  0.00000000E+00
                     5.00000000E-01  2.50000000E-01  0.00000000E+00
                     0.00000000E+00  5.00000000E-01  0.00000000E+00
                     2.50000000E-01  5.00000000E-01  0.00000000E+00
                     5.00000000E-01  5.00000000E-01  0.00000000E+00
          kptrlen    2.25835500E+01
         kptrlatt    4  0  0   0  4  0   0  0  1
P           mkmem         1
            natom         7
            nband       100
            ngfft        30      30      72
             nkpt        13
           npband        32
          nshiftk         4
           nspden         2
           nsppol         2
             nsym         8
           ntypat         3
              occ    1.000000  1.000000  1.000000  1.000000  1.000000  1.000000
                     1.000000  1.000000  1.000000  1.000000  1.000000  1.000000
                     1.000000  1.000000  1.000000  1.000000  1.000000  1.000000
                     0.000000  0.000000  0.000000  0.000000  0.000000  0.000000
                     0.000000  0.000000  0.000000  0.000000  0.000000  0.000000
                     0.000000  0.000000  0.000000  0.000000  0.000000  0.000000
                     0.000000  0.000000  0.000000  0.000000  0.000000  0.000000
                     0.000000  0.000000  0.000000  0.000000  0.000000  0.000000
                     0.000000  0.000000  0.000000  0.000000  0.000000  0.000000
                     0.000000  0.000000  0.000000  0.000000  0.000000  0.000000
                     0.000000  0.000000  0.000000  0.000000  0.000000  0.000000
                     0.000000  0.000000  0.000000  0.000000  0.000000  0.000000
                     0.000000  0.000000  0.000000  0.000000  0.000000  0.000000
                     0.000000  0.000000  0.000000  0.000000  0.000000  0.000000
                     0.000000  0.000000  0.000000  0.000000  0.000000  0.000000
                     0.000000  0.000000  0.000000  0.000000  0.000000  0.000000
                     0.000000  0.000000  0.000000  0.000000
                     1.000000  1.000000  1.000000  1.000000  1.000000  1.000000
                     1.000000  1.000000  1.000000  1.000000  1.000000  1.000000
                     1.000000  1.000000  1.000000  1.000000  1.000000  1.000000
                     0.000000  0.000000  0.000000  0.000000  0.000000  0.000000
                     0.000000  0.000000  0.000000  0.000000  0.000000  0.000000
                     0.000000  0.000000  0.000000  0.000000  0.000000  0.000000
                     0.000000  0.000000  0.000000  0.000000  0.000000  0.000000
                     0.000000  0.000000  0.000000  0.000000  0.000000  0.000000
                     0.000000  0.000000  0.000000  0.000000  0.000000  0.000000
                     0.000000  0.000000  0.000000  0.000000  0.000000  0.000000
                     0.000000  0.000000  0.000000  0.000000  0.000000  0.000000
                     0.000000  0.000000  0.000000  0.000000  0.000000  0.000000
                     0.000000  0.000000  0.000000  0.000000  0.000000  0.000000
                     0.000000  0.000000  0.000000  0.000000  0.000000  0.000000
                     0.000000  0.000000  0.000000  0.000000  0.000000  0.000000
                     0.000000  0.000000  0.000000  0.000000  0.000000  0.000000
                     0.000000  0.000000  0.000000  0.000000
           prtvol         5
            prtwf         0
           shiftk    0.00000000E+00  0.00000000E+00  0.00000000E+00
                     0.00000000E+00  0.00000000E+00  0.00000000E+00
                     5.00000000E-01  5.00000000E-01  0.00000000E+00
                     0.00000000E+00  0.00000000E+00  0.00000000E+00
          spgroup        47
           spinat    0.0000000000E+00  0.0000000000E+00  4.0000000000E+00
                     0.0000000000E+00  0.0000000000E+00  1.0000000000E+00
                     0.0000000000E+00  0.0000000000E+00  1.0000000000E+00
                     0.0000000000E+00  0.0000000000E+00  1.0000000000E+00
                     0.0000000000E+00  0.0000000000E+00  1.0000000000E+00
                     0.0000000000E+00  0.0000000000E+00  1.0000000000E+00
                     0.0000000000E+00  0.0000000000E+00  1.0000000000E+00
           symrel    1  0  0   0  1  0   0  0  1      -1  0  0   0 -1  0   0  0 -1
                    -1  0  0   0  1  0   0  0 -1       1  0  0   0 -1  0   0  0  1
                    -1  0  0   0 -1  0   0  0  1       1  0  0   0  1  0   0  0 -1
                     1  0  0   0 -1  0   0  0 -1      -1  0  0   0  1  0   0  0  1
           toldfe    1.00000000E-07 Hartree
            typat    1  2  2  3  3  3  3
              wtk      0.04688    0.06250    0.09375    0.06250    0.04688    0.09375
                       0.06250    0.18750    0.06250    0.09375    0.04688    0.09375
                       0.04688
           xangst    0.0000000000E+00  0.0000000000E+00  0.0000000000E+00
                     0.0000000000E+00  0.0000000000E+00  7.7237373771E+00
                     0.0000000000E+00  0.0000000000E+00  4.2269625720E+00
                     0.0000000000E+00  2.7451999047E+00  0.0000000000E+00
                     2.7022000231E+00  0.0000000000E+00  0.0000000000E+00
                     0.0000000000E+00  0.0000000000E+00  1.0013491487E+01
                     0.0000000000E+00  0.0000000000E+00  1.9372084617E+00
            xcart    0.0000000000E+00  0.0000000000E+00  0.0000000000E+00
                     0.0000000000E+00  0.0000000000E+00  1.4595748365E+01
                     0.0000000000E+00  0.0000000000E+00  7.9878016350E+00
                     0.0000000000E+00  5.1876760000E+00  0.0000000000E+00
                     5.1064180000E+00  0.0000000000E+00  0.0000000000E+00
                     0.0000000000E+00  0.0000000000E+00  1.8922756545E+01
                     0.0000000000E+00  0.0000000000E+00  3.6607934550E+00
             xred    0.0000000000E+00  0.0000000000E+00  0.0000000000E+00
                     0.0000000000E+00  0.0000000000E+00  6.4630000000E-01
                     0.0000000000E+00  0.0000000000E+00  3.5370000000E-01
                     0.0000000000E+00  5.0000000000E-01  0.0000000000E+00
                     5.0000000000E-01  0.0000000000E+00  0.0000000000E+00
                     0.0000000000E+00  0.0000000000E+00  8.3790000000E-01
                     0.0000000000E+00  0.0000000000E+00  1.6210000000E-01
            znucl     44.00000   38.00000    8.00000

 chkinp: Checking input parameters for consistency.

== DATASET  1 ==================================================================

 Real(R)+Recip(G) space primitive vectors, cartesian coordinates (Bohr,Bohr^-1):
 R(1)= 10.2128360  0.0000000  0.0000000  G(1)=  0.0979160  0.0000000  0.0000000
 R(2)=  0.0000000 10.3753520  0.0000000  G(2)=  0.0000000  0.0963823  0.0000000
 R(3)=  0.0000000  0.0000000 22.5835500  G(3)=  0.0000000  0.0000000  0.0442800
 Unit cell volume ucvol=  2.3929929E+03 bohr^3
 Angles (23,13,12)=  9.00000000E+01  9.00000000E+01  9.00000000E+01 degrees

 getcut: wavevector=  0.0000  0.0000  0.0000  ngfft=  30  30  72
         ecut(hartree)=     10.000   => boxcut(ratio)=   2.03120

--- Pseudopotential description ------------------------------------------------
- pspini: atom type   1  psp file is ru.fhi
- pspatm: opening atomic psp file    ru.fhi
 ruthenium, fhi98PP : Trouiller-Martins-type, GGA Perdew/Burke/Ernzerhof (1996), l= 1 local
  44.00000   8.00000     11001                znucl, zion, pspdat
    6   11    3    1       543   0.00000      pspcod,pspxc,lmax,lloc,mmax,r2well
    0.00000000000000    0.00000000000000    0.00000000000000   rchrg,fchrg,qchrg
  1.024700          amesh (Hamman grid)
 pspatm: epsatm=   88.68153230
         --- l  ekb(1:nproj) -->
             0   -0.413648
             2   -4.631334
             3   -2.138057
 pspatm: atomic psp has been read  and splines computed

- pspini: atom type   2  psp file is sr.fhi
- pspatm: opening atomic psp file    sr.fhi
 strontium, fhi98PP : Trouiller-Martins-type, GGA Perdew/Burke/Ernzerhof (1996), l= 0 local
  38.00000   2.00000     11001                znucl, zion, pspdat
    6   11    3    0       537   0.00000      pspcod,pspxc,lmax,lloc,mmax,r2well
    7.56200000000000    1.00000000000000    0.00000000000000   rchrg,fchrg,qchrg
  1.024700          amesh (Hamman grid)
 pspatm: epsatm=   95.58552014
         --- l  ekb(1:nproj) -->
             1   23.302552
             2   -2.822358
             3   -1.084855
 pspatm: atomic psp has been read  and splines computed

- pspini: atom type   3  psp file is o.fhi
- pspatm: opening atomic psp file    o.fhi
 oxygen, fhi98PP : Trouiller-Martins-type, GGA Perdew/Burke/Ernzerhof (1996), l= 2 local
   8.00000   6.00000     21003                znucl, zion, pspdat
    6   11    3    2       473   0.00000      pspcod,pspxc,lmax,lloc,mmax,r2well
    0.00000000000000    0.00000000000000    0.00000000000000   rchrg,fchrg,qchrg
  1.024700          amesh (Hamman grid)
 pspatm: epsatm=    3.69310156
[...]
  -6.33203  -6.20282  -6.19233  -6.16481  -5.80641  -5.20354  -4.77186  -4.59352
  -4.52247  -4.25956  -3.99980  -2.57746  -2.50488  -2.01894  -1.93505  -1.87570
  -1.84627  -1.53299  -1.09853  -1.00230  -0.92736  -0.85387  -0.48363  -0.40370
   0.78862   0.90626   1.15289   1.58110   1.98417   2.43372   2.50904   3.42389
   3.67580   3.73074   3.75618   3.99461   4.20721   5.15684   5.30629   5.41025
   5.48004   5.89539   6.06963   6.12305   6.24972   6.44525   7.10172   7.39862
   7.46490   7.79313   7.86804   8.16130   8.19294   8.55610   8.74357   8.78905
   9.29206   9.29917   9.39622   9.55869   9.79332  10.78219  10.91032  10.97976
  11.05704  11.12889  11.46002  11.47186  11.93057  12.09187  12.35218  12.37560
  13.00673  13.02691  13.28419  13.64873  13.80534  13.84650  13.88821  14.01685
  14.17378  14.26405  14.28203  14.74491  15.07186  15.07288  15.43261  15.60332
  15.91258  15.94387  16.45336  16.53270
 kpt#  12, nband=100, wtk=  0.09375, kpt=  0.2500  0.5000  0.0000 (reduced coord)
 -26.51970 -26.33740 -26.29420 -26.19201  -8.84622  -6.75207  -6.73484  -6.64283
  -6.55972  -6.52703  -6.01300  -5.95445  -5.73457  -5.44948  -4.47456  -4.47404
  -4.43548  -4.25003  -3.80952  -2.80250  -2.17589  -2.15751  -2.00842  -1.73540
  -1.72573  -1.42926  -1.22520  -0.82818  -0.64975  -0.53221  -0.46222  -0.31484
   0.91707   0.94672   1.04158   1.40225   1.55752   1.66877   1.90721   2.80816
   2.95803   3.29193   4.21411   4.26298   4.37697   4.49182   5.07882   5.36875
   5.78229   5.79959   6.51799   6.82680   6.90442   7.12565   7.22580   7.45224
   7.70279   7.82209   8.07362   8.11820   8.45162   8.70493   8.72033   9.13856
   9.55347   9.60965   9.92086   9.94223  10.25244  10.26112  10.34124  10.68476
  10.73467  11.08883  11.41956  11.62142  11.79082  11.98506  12.35911  12.86448
  13.05463  13.12769  13.20181  13.23481  13.41895  13.73818  13.87373  14.24217
  14.31068  14.37527  14.41675  14.58631  14.70131  14.80362  15.38137  15.41464
  15.42345  15.47163  15.51056  15.94289
 kpt#  13, nband=100, wtk=  0.04688, kpt=  0.5000  0.5000  0.0000 (reduced coord)
 -26.51543 -26.33742 -26.29653 -26.19182  -8.80447  -6.79389  -6.76708  -6.70698
  -6.70158  -6.65150  -5.95941  -5.93051  -5.70029  -5.65286  -4.32490  -4.31678
  -4.27203  -3.84583  -3.53038  -3.47523  -2.74836  -1.97008  -1.89958  -1.64575
  -1.23612  -0.94428  -0.65021  -0.46557  -0.44523  -0.36084  -0.32661  -0.31868
  -0.23552  -0.07222   0.95053   0.95160   1.38996   2.17508   2.33455   2.55854
   2.58555   2.60829   3.31822   4.23144   4.61085   4.68040   4.95225   5.55090
   5.55120   6.09781   6.81057   6.81550   6.93922   7.30728   7.34425   7.96790
   8.11615   8.46282   8.50656   8.52326   8.67584   8.76157   8.82846   9.05979
   9.58801   9.64569   9.74725   9.89705  10.26978  10.44345  10.77637  10.78946
  11.14999  11.37494  11.51393  11.51468  11.62756  11.73591  11.77029  11.86879
  12.01329  12.83840  12.84498  13.02102  13.53277  13.74599  13.84764  13.98440
  14.11844  14.14838  14.47884  14.83829  14.86553  15.39045  15.42014  15.42387
  15.61771  15.83268  16.32325  16.33823
 Total charge density [el/Bohr^3]
,     Maximum=    6.8869E-01  at reduced coord.    0.5000    0.0000    0.9722
,Next maximum=    6.8869E-01  at reduced coord.    0.5000    0.0000    0.0278
,     Minimum=    4.8728E-05  at reduced coord.    0.5000    0.5000    0.1389
,Next minimum=    4.8728E-05  at reduced coord.    0.5000    0.5000    0.8611
 Spin up density      [el/Bohr^3]
,     Maximum=    3.4273E-01  at reduced coord.    0.5000    0.0000    0.9722
,Next maximum=    3.4273E-01  at reduced coord.    0.5000    0.0000    0.0278
,     Minimum=    2.5569E-05  at reduced coord.    0.5000    0.5000    0.1250
,Next minimum=    2.5569E-05  at reduced coord.    0.5000    0.5000    0.8750
 Spin down density    [el/Bohr^3]
,     Maximum=    3.7222E-01  at reduced coord.    0.9333    0.5000    0.0000
,Next maximum=    3.7222E-01  at reduced coord.    0.0667    0.5000    0.0000
,     Minimum=    2.2787E-05  at reduced coord.    0.5000    0.5000    0.1389
,Next minimum=    2.2787E-05  at reduced coord.    0.5000    0.5000    0.8611
 Magnetization (spin up - spin down) [el/Bohr^3]
,     Maximum=    1.7537E-01  at reduced coord.    0.0000    0.9000    0.9861
,Next maximum=    1.7537E-01  at reduced coord.    0.0000    0.1000    0.9861
,     Minimum=   -2.3328E-01  at reduced coord.    0.0667    0.5000    0.0000
,Next minimum=   -2.3328E-01  at reduced coord.    0.9333    0.5000    0.0000
 Relative magnetization (=zeta, between -1 and 1)
,     Maximum=    8.0956E-01  at reduced coord.    0.0000    0.9667    0.0000
,Next maximum=    8.0956E-01  at reduced coord.    0.0000    0.0333    0.0000
,     Minimum=   -7.7926E-01  at reduced coord.    0.3667    0.5000    0.0000
,Next minimum=   -7.7926E-01  at reduced coord.    0.6333    0.5000    0.0000

 Components of total free energy (in Hartree) :

    Kinetic energy  =  4.76146843378711E+01
    Hartree energy  =  7.34433500872130E+01
    XC energy       = -1.79923204968649E+01
    Ewald energy    =  6.03253220396534E-02
    PspCore energy  =  4.43231539039491E+00
    Loc. psp. energy= -1.73621214459581E+02
    NL   psp  energy= -1.28235541836986E+01
    >>>>>>>>> Etotal= -7.88864140026258E+01

 Other information on the energy :
    Total energy(eV)= -2.14660849276433E+03 ; Band energy (Ha)=  -1.3848929626E+01

 Cartesian components of stress tensor (hartree/bohr^3)
  sigma(1 1)=  2.11494579E-03  sigma(3 2)=  0.00000000E+00
  sigma(2 2)=  2.07899525E-03  sigma(3 1)=  0.00000000E+00
  sigma(3 3)=  2.04312975E-03  sigma(2 1)=  0.00000000E+00

-Cartesian components of stress tensor (GPa)         [Pressure= -6.1167E+01 GPa]
- sigma(1 1)=  6.22238430E+01  sigma(3 2)=  0.00000000E+00
- sigma(2 2)=  6.11661418E+01  sigma(3 1)=  0.00000000E+00
- sigma(3 3)=  6.01109426E+01  sigma(2 1)=  0.00000000E+00

== END DATASET(S) ==============================================================

 -outvars: echo values of variables after computation  --------
            acell    1.0212836000E+01  1.0375352000E+01  2.2583550000E+01 Bohr
              amu    1.01070000E+02  8.76200000E+01  1.59994000E+01
             ecut    1.00000000E+01 Hartree
           enunit         1
           etotal   -7.8886414003E+01
            fcart    0.0000000000E+00  0.0000000000E+00  0.0000000000E+00
                     0.0000000000E+00  0.0000000000E+00  8.2706928225E-03
                     0.0000000000E+00  0.0000000000E+00 -8.2706928225E-03
                     0.0000000000E+00  0.0000000000E+00  0.0000000000E+00
                     0.0000000000E+00  0.0000000000E+00  0.0000000000E+00
                     0.0000000000E+00  0.0000000000E+00  6.6046732486E-02
                     0.0000000000E+00  0.0000000000E+00 -6.6046732486E-02
           gwpara         2
             iscf         5
           istwfk      1    0    0    0    1    0    0    0    0    0
                       1    0    1
              ixc        11
              kpt    0.00000000E+00  0.00000000E+00  0.00000000E+00
                     1.25000000E-01  1.25000000E-01  0.00000000E+00
                     2.50000000E-01  0.00000000E+00  0.00000000E+00
                     3.75000000E-01  1.25000000E-01  0.00000000E+00
                     5.00000000E-01  0.00000000E+00  0.00000000E+00
                     0.00000000E+00  2.50000000E-01  0.00000000E+00
                     1.25000000E-01  3.75000000E-01  0.00000000E+00
                     2.50000000E-01  2.50000000E-01  0.00000000E+00
                     3.75000000E-01  3.75000000E-01  0.00000000E+00
                     5.00000000E-01  2.50000000E-01  0.00000000E+00
                     0.00000000E+00  5.00000000E-01  0.00000000E+00
                     2.50000000E-01  5.00000000E-01  0.00000000E+00
                     5.00000000E-01  5.00000000E-01  0.00000000E+00
          kptrlen    2.25835500E+01
         kptrlatt    4  0  0   0  4  0   0  0  1
P           mkmem         1
            natom         7
            nband       100
            ngfft        30      30      72
             nkpt        13
           npband        32
          nshiftk         4
           nspden         2
           nsppol         2
             nsym         8
           ntypat         3
              occ    1.000000  1.000000  1.000000  1.000000  1.000000  1.000000
                     1.000000  1.000000  1.000000  1.000000  1.000000  1.000000
                     1.000000  1.000000  1.000000  1.000000  1.000000  1.000000
                     0.000000  0.000000  0.000000  0.000000  0.000000  0.000000
                     0.000000  0.000000  0.000000  0.000000  0.000000  0.000000
                     0.000000  0.000000  0.000000  0.000000  0.000000  0.000000
                     0.000000  0.000000  0.000000  0.000000  0.000000  0.000000
                     0.000000  0.000000  0.000000  0.000000  0.000000  0.000000
                     0.000000  0.000000  0.000000  0.000000  0.000000  0.000000
                     0.000000  0.000000  0.000000  0.000000  0.000000  0.000000
                     0.000000  0.000000  0.000000  0.000000  0.000000  0.000000
                     0.000000  0.000000  0.000000  0.000000  0.000000  0.000000
                     0.000000  0.000000  0.000000  0.000000  0.000000  0.000000
                     0.000000  0.000000  0.000000  0.000000  0.000000  0.000000
                     0.000000  0.000000  0.000000  0.000000  0.000000  0.000000
                     0.000000  0.000000  0.000000  0.000000  0.000000  0.000000
                     0.000000  0.000000  0.000000  0.000000
                     1.000000  1.000000  1.000000  1.000000  1.000000  1.000000
                     1.000000  1.000000  1.000000  1.000000  1.000000  1.000000
                     1.000000  1.000000  1.000000  1.000000  1.000000  1.000000
                     0.000000  0.000000  0.000000  0.000000  0.000000  0.000000
                     0.000000  0.000000  0.000000  0.000000  0.000000  0.000000
                     0.000000  0.000000  0.000000  0.000000  0.000000  0.000000
                     0.000000  0.000000  0.000000  0.000000  0.000000  0.000000
                     0.000000  0.000000  0.000000  0.000000  0.000000  0.000000
                     0.000000  0.000000  0.000000  0.000000  0.000000  0.000000
                     0.000000  0.000000  0.000000  0.000000  0.000000  0.000000
                     0.000000  0.000000  0.000000  0.000000  0.000000  0.000000
                     0.000000  0.000000  0.000000  0.000000  0.000000  0.000000
                     0.000000  0.000000  0.000000  0.000000  0.000000  0.000000
                     0.000000  0.000000  0.000000  0.000000  0.000000  0.000000
                     0.000000  0.000000  0.000000  0.000000  0.000000  0.000000
                     0.000000  0.000000  0.000000  0.000000  0.000000  0.000000
                     0.000000  0.000000  0.000000  0.000000
           prtvol         5
            prtwf         0
           shiftk    0.00000000E+00  0.00000000E+00  0.00000000E+00
                     0.00000000E+00  0.00000000E+00  0.00000000E+00
                     5.00000000E-01  5.00000000E-01  0.00000000E+00
                     0.00000000E+00  0.00000000E+00  0.00000000E+00
          spgroup        47
           spinat    0.0000000000E+00  0.0000000000E+00  4.0000000000E+00
                     0.0000000000E+00  0.0000000000E+00  1.0000000000E+00
                     0.0000000000E+00  0.0000000000E+00  1.0000000000E+00
                     0.0000000000E+00  0.0000000000E+00  1.0000000000E+00
                     0.0000000000E+00  0.0000000000E+00  1.0000000000E+00
                     0.0000000000E+00  0.0000000000E+00  1.0000000000E+00
                     0.0000000000E+00  0.0000000000E+00  1.0000000000E+00
           strten    2.1149457936E-03  2.0789952541E-03  2.0431297548E-03
                     0.0000000000E+00  0.0000000000E+00  0.0000000000E+00
           symrel    1  0  0   0  1  0   0  0  1      -1  0  0   0 -1  0   0  0 -1
                    -1  0  0   0  1  0   0  0 -1       1  0  0   0 -1  0   0  0  1
                    -1  0  0   0 -1  0   0  0  1       1  0  0   0  1  0   0  0 -1
                     1  0  0   0 -1  0   0  0 -1      -1  0  0   0  1  0   0  0  1
           toldfe    1.00000000E-07 Hartree
            typat    1  2  2  3  3  3  3
              wtk      0.04688    0.06250    0.09375    0.06250    0.04688    0.09375
                       0.06250    0.18750    0.06250    0.09375    0.04688    0.09375
                       0.04688
           xangst    0.0000000000E+00  0.0000000000E+00  0.0000000000E+00
                     0.0000000000E+00  0.0000000000E+00  7.7237373771E+00
                     0.0000000000E+00  0.0000000000E+00  4.2269625720E+00
                     0.0000000000E+00  2.7451999047E+00  0.0000000000E+00
                     2.7022000231E+00  0.0000000000E+00  0.0000000000E+00
                     0.0000000000E+00  0.0000000000E+00  1.0013491487E+01
                     0.0000000000E+00  0.0000000000E+00  1.9372084617E+00
            xcart    0.0000000000E+00  0.0000000000E+00  0.0000000000E+00
                     0.0000000000E+00  0.0000000000E+00  1.4595748365E+01
                     0.0000000000E+00  0.0000000000E+00  7.9878016350E+00
                     0.0000000000E+00  5.1876760000E+00  0.0000000000E+00
                     5.1064180000E+00  0.0000000000E+00  0.0000000000E+00
                     0.0000000000E+00  0.0000000000E+00  1.8922756545E+01
                     0.0000000000E+00  0.0000000000E+00  3.6607934550E+00
             xred    0.0000000000E+00  0.0000000000E+00  0.0000000000E+00
                     0.0000000000E+00  0.0000000000E+00  6.4630000000E-01
                     0.0000000000E+00  0.0000000000E+00  3.5370000000E-01
                     0.0000000000E+00  5.0000000000E-01  0.0000000000E+00
                     5.0000000000E-01  0.0000000000E+00  0.0000000000E+00
                     0.0000000000E+00  0.0000000000E+00  8.3790000000E-01
                     0.0000000000E+00  0.0000000000E+00  1.6210000000E-01
            znucl     44.00000   38.00000    8.00000

- Timing analysis has been suppressed with timopt=0

 Suggested references for the acknowledgment of ABINIT usage.

 [1] Ab initio pseudopotentials for electronic structure calculations of poly-atomic systems,
 using density-functional theory.
 M. Fuchs, M. Scheffler, Comput. Phys. Commun. 119, 67 (1999).
 Comment : Some pseudopotential generated using the FHI code were used.

 [2] ABINIT : First-principles approach of materials and nanosystem properties.
 X. Gonze, B. Amadon, P.-M. Anglade, J.-M. Beuken, F. Bottin, P. Boulanger, F. Bruneval,
 D. Caliste, R. Caracas, M. Cote, T. Deutsch, L. Genovese, Ph. Ghosez, M. Giantomassi
 S. Goedecker, D.R. Hamann, P. Hermet, F. Jollet, G. Jomard, S. Leroux, M. Mancini, S. Mazevet,
 M.J.T. Oliveira, G. Onida, Y. Pouillon, T. Rangel, G.-M. Rignanese, D. Sangalli, R. Shaltaf,
 M. Torrent, M.J. Verstraete, G. Zerah, J.W. Zwanziger
 Computer Phys. Comm. 180, 2582-2615 (2009).
 Comment : the third generic paper describing the ABINIT project.
 Note that a version of this paper, that is not formatted for Computer Phys. Comm.
 The licence allows the authors to put it on the Web.

 [3] A brief introduction to the ABINIT software package.
 X. Gonze, G.-M. Rignanese, M. Verstraete, J.-M. Beuken, Y. Pouillon, R. Caracas, F. Jollet,
 M. Torrent, G. Zerah, M. Mikami, Ph. Ghosez, M. Veithen, J.-Y. Raty, V. Olevano, F. Bruneval,
 L. Reining, R. Godby, G. Onida, D.R. Hamann, and D.C. Allan.
 Z. Kristallogr. 220, 558-562 (2005).
 Comment : the second generic paper describing the ABINIT project. Note that this paper
 should be cited especially if you are using the GW part of ABINIT, as several authors
 of this part are not in the list of authors of the first or third paper.
 Note that it should not redistributed (Copyright by Oldenburg Wissenshaftverlag,
 the licence allows the authors to put it on the Web).

 And optionally :

 [4] First-principles computation of material properties : the ABINIT software project.
 X. Gonze, J.-M. Beuken, R. Caracas, F. Detraux, M. Fuchs, G.-M. Rignanese, L. Sindic,
 M. Verstraete, G. Zerah, F. Jollet, M. Torrent, A. Roy, M. Mikami, Ph. Ghosez, J.-Y. Raty, D.C. Allan.
 Comment : the original paper describing the ABINIT project.

 [5] Fast radix 2, 3, 4 and 5 kernels for Fast Fourier Transformations
 on computers with overlapping multiply-add instructions.
 S. Goedecker, SIAM J. on Scientific Computing 18, 1605 (1997).
-

 Calculation completed.
.Delivered   29 WARNINGs and   0 COMMENTs to log file.