.Version 7.8.1 of ABINIT

 ABINIT is a project of the Universite Catholique de Louvain,
 Corning Inc. and other collaborators, see ~abinit/doc/developers/contributors.txt .
 Please read ~abinit/doc/users/acknowledgments.html for suggested
 acknowledgments of the ABINIT effort.

.Starting date : Thu 31 Jul 2014.
- ( at 00h14 )

- input  file    -> telast_1.in
- output file    -> telast_1.out
- root for input  files -> telast_1i
- root for output files -> telast_1o

 DATASET    1 : space group Pn m a (# 62); Bravais oP (primitive ortho.)
   intxc =         0  ionmov =         2    iscf =         7 xclevel =         2
  lmnmax =         4   lnmax =         4   mband =        80  mffmem =         1
P  mgfft =        72   mkmem =         1 mpssoang=         4     mpw =      5490
  mqgrid =      3405   natom =        28    nfft =     92160    nkpt =        40
  nloalg =         4  nspden =         1 nspinor =         1  nsppol =         1
    nsym =         8  n1xccc =      2501  ntypat =         4  occopt =         1
  Rough estimation (10% accuracy) of disk space for files :

 DATASET    2 : space group Pn m a (# 62); Bravais oP (primitive ortho.)
   intxc =         0  ionmov =         2    iscf =         7 xclevel =         2
  lmnmax =         4   lnmax =         4   mband =        80  mffmem =         1
P  mgfft =        72   mkmem =         1 mpssoang=         4     mpw =      6340
  mqgrid =      3575   natom =        28    nfft =    116640    nkpt =        40
  nloalg =         4  nspden =         1 nspinor =         1  nsppol =         1
    nsym =         8  n1xccc =      2501  ntypat =         4  occopt =         1
  Rough estimation (10% accuracy) of disk space for files :

------------- Echo of variables that govern the present computation ------------
-
- outvars: echo of selected default values
-   accesswff0 =  0 , fftalg0 =312 , wfoptalg0 =  0
-
- outvars: echo of global parameters not present in the input file
-  max_nthreads =    0
-
 -outvars: echo values of preprocessed input variables --------
            acell      1.9524648914E+01  1.1357253191E+01  8.8665943380E+00 Bohr
              amu      6.94100000E+00  5.58470000E+01  3.09737620E+01
                       1.59994000E+01
        autoparal           1
           diemac      2.00000000E+00
          dilatmx1     1.00000000E+00
          dilatmx2     1.05000000E+00
             ecut      1.50000000E+01 Hartree
           ecutsm      5.00000000E-01 Hartree
-          fftalg         312
           getwfk1          0
           getwfk2         -1
          getxred1          0
          getxred2         -1
           iatfix        1    7   13   19
          iatfixy        2    3    4    5    8    9   10   11   14   15
                        16   17   20   21   22   23
           ionmov           2
              ixc          11
           jdtset        1    2
              kpt      1.25000000E-01  7.14285714E-02  5.55555556E-02
                       3.75000000E-01  7.14285714E-02  5.55555556E-02
                       1.25000000E-01  2.14285714E-01  5.55555556E-02
                       3.75000000E-01  2.14285714E-01  5.55555556E-02
                       1.25000000E-01  3.57142857E-01  5.55555556E-02
                       3.75000000E-01  3.57142857E-01  5.55555556E-02
                       1.25000000E-01  5.00000000E-01  5.55555556E-02
                       3.75000000E-01  5.00000000E-01  5.55555556E-02
                       1.25000000E-01  7.14285714E-02  1.66666667E-01
                       3.75000000E-01  7.14285714E-02  1.66666667E-01
                       1.25000000E-01  2.14285714E-01  1.66666667E-01
                       3.75000000E-01  2.14285714E-01  1.66666667E-01
                       1.25000000E-01  3.57142857E-01  1.66666667E-01
                       3.75000000E-01  3.57142857E-01  1.66666667E-01
                       1.25000000E-01  5.00000000E-01  1.66666667E-01
                       3.75000000E-01  5.00000000E-01  1.66666667E-01
                       1.25000000E-01  7.14285714E-02  2.77777778E-01
                       3.75000000E-01  7.14285714E-02  2.77777778E-01
                       1.25000000E-01  2.14285714E-01  2.77777778E-01
                       3.75000000E-01  2.14285714E-01  2.77777778E-01
                       1.25000000E-01  3.57142857E-01  2.77777778E-01
                       3.75000000E-01  3.57142857E-01  2.77777778E-01
                       1.25000000E-01  5.00000000E-01  2.77777778E-01
                       3.75000000E-01  5.00000000E-01  2.77777778E-01
                       1.25000000E-01  7.14285714E-02  3.88888889E-01
                       3.75000000E-01  7.14285714E-02  3.88888889E-01
                       1.25000000E-01  2.14285714E-01  3.88888889E-01
                       3.75000000E-01  2.14285714E-01  3.88888889E-01
                       1.25000000E-01  3.57142857E-01  3.88888889E-01
                       3.75000000E-01  3.57142857E-01  3.88888889E-01
                       1.25000000E-01  5.00000000E-01  3.88888889E-01
                       3.75000000E-01  5.00000000E-01  3.88888889E-01
                       1.25000000E-01  7.14285714E-02  5.00000000E-01
                       3.75000000E-01  7.14285714E-02  5.00000000E-01
                       1.25000000E-01  2.14285714E-01  5.00000000E-01
                       3.75000000E-01  2.14285714E-01  5.00000000E-01
                       1.25000000E-01  3.57142857E-01  5.00000000E-01
                       3.75000000E-01  3.57142857E-01  5.00000000E-01
                       1.25000000E-01  5.00000000E-01  5.00000000E-01
                       3.75000000E-01  5.00000000E-01  5.00000000E-01
         kptrlatt        4    0    0      0    7    0      0    0    9
          kptrlen      7.80985957E+01
P           mkmem           1
           natfix           4
          natfixy          16
            natom          28
            nband          80
           ndtset           2
            ngfft1         72      40      32
            ngfft2         72      45      36
             nkpt          40
-           npkpt          40
            nstep          40
             nsym           8
            ntime1          5
            ntime2         12
           ntypat           4
              occ      2.000000  2.000000  2.000000  2.000000  2.000000  2.000000
                       2.000000  2.000000  2.000000  2.000000  2.000000  2.000000
                       2.000000  2.000000  2.000000  2.000000  2.000000  2.000000
                       2.000000  2.000000  2.000000  2.000000  2.000000  2.000000
                       2.000000  2.000000  2.000000  2.000000  2.000000  2.000000
                       2.000000  2.000000  2.000000  2.000000  2.000000  2.000000
                       2.000000  2.000000  2.000000  2.000000  2.000000  2.000000
                       2.000000  2.000000  2.000000  2.000000  2.000000  2.000000
                       2.000000  2.000000  2.000000  2.000000  2.000000  2.000000
                       2.000000  2.000000  2.000000  2.000000  2.000000  2.000000
                       2.000000  2.000000  2.000000  2.000000  2.000000  2.000000
                       2.000000  2.000000  2.000000  2.000000  2.000000  2.000000
                       2.000000  2.000000  2.000000  2.000000  0.000000  0.000000
                       0.000000  0.000000
          optcell1          0
          optcell2          2
           shiftk      5.00000000E-01  5.00000000E-01  5.00000000E-01
          spgroup          62
           symrel      1  0  0   0  1  0   0  0  1      -1  0  0   0 -1  0   0  0  1
                      -1  0  0   0  1  0   0  0 -1       1  0  0   0 -1  0   0  0 -1
                      -1  0  0   0 -1  0   0  0 -1       1  0  0   0  1  0   0  0 -1
                       1  0  0   0 -1  0   0  0  1      -1  0  0   0  1  0   0  0  1
            tnons      0.0000000  0.0000000  0.0000000     0.5000000  0.0000000  0.5000000
                       0.0000000  0.5000000  0.0000000     0.5000000  0.5000000  0.5000000
                      -0.0000000 -0.0000000 -0.0000000     0.5000000 -0.0000000  0.5000000
                      -0.0000000  0.5000000 -0.0000000     0.5000000  0.5000000  0.5000000
           tolmxf      1.00000000E-06
           tolvrs      1.00000000E-10
            typat      1  2  3  4  4  4  1  2  3  4  4  4  1  2  3  4  4  4  1  2
                       3  4  4  4  4  4  4  4
              wtk        0.03175    0.03175    0.03175    0.03175    0.03175    0.03175
                         0.01587    0.01587    0.03175    0.03175    0.03175    0.03175
                         0.03175    0.03175    0.01587    0.01587    0.03175    0.03175
                         0.03175    0.03175    0.03175    0.03175    0.01587    0.01587
                         0.03175    0.03175    0.03175    0.03175    0.03175    0.03175
                         0.01587    0.01587    0.01587    0.01587    0.01587    0.01587
                         0.01587    0.01587    0.00794    0.00794
           xangst      0.0000000000E+00  0.0000000000E+00  0.0000000000E+00
                       2.9158968173E+00  1.5024998852E+00  4.5733858905E+00
                       9.8009344516E-01  1.5024998852E+00  1.9621942501E+00
                       9.9993088364E-01  1.5024998852E+00  3.4851704137E+00
                       4.7227568394E+00  1.5024998852E+00  9.6664576614E-01
                       1.7107724294E+00  2.7922457867E-01  1.3361876579E+00
                       5.1659996055E+00  0.0000000000E+00  2.3459998207E+00
                       2.2501027882E+00  4.5074996556E+00  2.2273860698E+00
                       4.1859061603E+00  4.5074996556E+00  4.3081940708E+00
                       4.1660687219E+00  4.5074996556E+00  1.1391705930E+00
                       4.4324276615E-01  4.5074996556E+00  3.3126455869E+00
                       3.4552271761E+00  5.7307749622E+00  3.6821874786E+00
                       0.0000000000E+00  3.0049997704E+00  0.0000000000E+00
                       7.4161023937E+00  4.5074996556E+00  1.1861375094E-01
                       9.3519057659E+00  4.5074996556E+00  2.7298053914E+00
                       9.3320683274E+00  4.5074996556E+00  1.2068292278E+00
                       5.6092423717E+00  4.5074996556E+00  3.7253538753E+00
                       8.6212267817E+00  3.2842243491E+00  3.3558119836E+00
                       5.1659996055E+00  3.0049997704E+00  2.3459998207E+00
                       8.0818964228E+00  1.5024998852E+00  2.4646135717E+00
                       6.1460930507E+00  1.5024998852E+00  3.8380557067E-01
                       6.1659304891E+00  1.5024998852E+00  3.5528290485E+00
                       9.8887564449E+00  1.5024998852E+00  1.3793540546E+00
                       6.8767720349E+00  2.7257751918E+00  1.0098121628E+00
                       8.6212267817E+00  5.7307749622E+00  3.3558119836E+00
                       6.8767720349E+00  2.7922457867E-01  1.0098121628E+00
                       1.7107724294E+00  2.7257751918E+00  1.3361876579E+00
                       3.4552271761E+00  3.2842243491E+00  3.6821874786E+00
[...]
                      -1  0  0   0  1  0   0  0 -1       1  0  0   0 -1  0   0  0 -1
                      -1  0  0   0 -1  0   0  0 -1       1  0  0   0  1  0   0  0 -1
                       1  0  0   0 -1  0   0  0  1      -1  0  0   0  1  0   0  0  1
            tnons      0.0000000  0.0000000  0.0000000     0.5000000  0.0000000  0.5000000
                       0.0000000  0.5000000  0.0000000     0.5000000  0.5000000  0.5000000
                      -0.0000000 -0.0000000 -0.0000000     0.5000000 -0.0000000  0.5000000
                      -0.0000000  0.5000000 -0.0000000     0.5000000  0.5000000  0.5000000
           tolmxf      1.00000000E-06
           tolvrs      1.00000000E-10
            typat      1  2  3  4  4  4  1  2  3  4  4  4  1  2  3  4  4  4  1  2
                       3  4  4  4  4  4  4  4
              wtk        0.03175    0.03175    0.03175    0.03175    0.03175    0.03175
                         0.01587    0.01587    0.03175    0.03175    0.03175    0.03175
                         0.03175    0.03175    0.01587    0.01587    0.03175    0.03175
                         0.03175    0.03175    0.03175    0.03175    0.01587    0.01587
                         0.03175    0.03175    0.03175    0.03175    0.03175    0.03175
                         0.01587    0.01587    0.01587    0.01587    0.01587    0.01587
                         0.01587    0.01587    0.00794    0.00794
           xangst1     0.0000000000E+00  0.0000000000E+00  0.0000000000E+00
                       2.8138776964E+00  1.5024998852E+00  4.6370688997E+00
                       9.9157125863E-01  1.5024998852E+00  1.9919269629E+00
                       1.0630792575E+00  1.5024998852E+00  3.5984495876E+00
                       4.6213198586E+00  1.5024998852E+00  9.5430112190E-01
                       1.7855146088E+00  2.1943613480E-01  1.2540118442E+00
                       5.1659996055E+00  0.0000000000E+00  2.3459998207E+00
                       2.3521219091E+00  4.5074996556E+00  2.2910690789E+00
                       4.1744283469E+00  4.5074996556E+00  4.3379267836E+00
                       4.1029203480E+00  4.5074996556E+00  1.2524497669E+00
                       5.4467974690E-01  4.5074996556E+00  3.3003009426E+00
                       3.3804849967E+00  5.7905634061E+00  3.6000116649E+00
                       0.0000000000E+00  3.0049997704E+00  0.0000000000E+00
                       7.5181215146E+00  4.5074996556E+00  5.4930741802E-02
                       9.3404279524E+00  4.5074996556E+00  2.7000726786E+00
                       9.2689199535E+00  4.5074996556E+00  1.0935500539E+00
                       5.7106793524E+00  4.5074996556E+00  3.7376985196E+00
                       8.5464846022E+00  3.2244359052E+00  3.4379877973E+00
                       5.1659996055E+00  3.0049997704E+00  2.3459998207E+00
                       7.9798773019E+00  1.5024998852E+00  2.4009305625E+00
                       6.1575708641E+00  1.5024998852E+00  3.5407285784E-01
                       6.2290788630E+00  1.5024998852E+00  3.4395498746E+00
                       9.7873194641E+00  1.5024998852E+00  1.3916986988E+00
                       6.9515142143E+00  2.7855636356E+00  1.0919879766E+00
                       8.5464846022E+00  5.7905634061E+00  3.4379877973E+00
                       6.9515142143E+00  2.1943613480E-01  1.0919879766E+00
                       1.7855146088E+00  2.7855636356E+00  1.2540118442E+00
                       3.3804849967E+00  3.2244359052E+00  3.6000116649E+00
           xangst2     0.0000000000E+00  0.0000000000E+00  0.0000000000E+00
                       2.7069113536E+00  1.4625869152E+00  4.6177687479E+00
                       9.5899970805E-01  1.4625869152E+00  1.9550575067E+00
                       9.8869890371E-01  1.4625869152E+00  3.5396269137E+00
                       4.5051474153E+00  1.4625869152E+00  9.4310339500E-01
                       1.7108505707E+00  1.6702273466E-01  1.2432658870E+00
                       5.0375687443E+00  0.0000000000E+00  2.3109094245E+00
                       2.3306573907E+00  4.3877607455E+00  2.3068593235E+00
                       4.0785690363E+00  4.3877607455E+00  4.2659669312E+00
                       4.0488698406E+00  4.3877607455E+00  1.2287174892E+00
                       5.3242132901E-01  4.3877607455E+00  3.2540128195E+00
                       3.3267181736E+00  5.6833249260E+00  3.5541753115E+00
                       0.0000000000E+00  2.9251738303E+00  0.0000000000E+00
                       7.3682261350E+00  4.3877607455E+00  4.0501009838E-03
                       9.1161377806E+00  4.3877607455E+00  2.6667613422E+00
                       9.0864385849E+00  4.3877607455E+00  1.0821919352E+00
                       5.5699900733E+00  4.3877607455E+00  3.6787154539E+00
                       8.3642869179E+00  3.0921965650E+00  3.3785529619E+00
                       5.0375687443E+00  2.9251738303E+00  2.3109094245E+00
                       7.7444800979E+00  1.4625869152E+00  2.3149595254E+00
                       5.9965684524E+00  1.4625869152E+00  3.5585191774E-01
                       6.0262676480E+00  1.4625869152E+00  3.3931013597E+00
                       9.5427161596E+00  1.4625869152E+00  1.3678060295E+00
                       6.7484193150E+00  2.7581510957E+00  1.0676435374E+00
                       8.3642869179E+00  5.6833249260E+00  3.3785529619E+00
                       6.7484193150E+00  1.6702273466E-01  1.0676435374E+00
                       1.7108505707E+00  2.7581510957E+00  1.2432658870E+00
                       3.3267181736E+00  3.0921965650E+00  3.5541753115E+00
            xcart1     0.0000000000E+00  0.0000000000E+00  0.0000000000E+00
                       5.3174582177E+00  2.8393132977E+00  8.7627902797E+00
                       1.8737981200E+00  2.8393132977E+00  3.7641964366E+00
                       2.0089286543E+00  2.8393132977E+00  6.8000842236E+00
                       8.7330289052E+00  2.8393132977E+00  1.8033677687E+00
                       3.3741336170E+00  4.1467419843E-01  2.3697389528E+00
                       9.7623244570E+00  0.0000000000E+00  4.4332971690E+00
                       4.4448662393E+00  8.5179398933E+00  4.3294931107E+00
                       7.8885263370E+00  8.5179398933E+00  8.1974936056E+00
                       7.7533958027E+00  8.5179398933E+00  2.3667870546E+00
                       1.0292955518E+00  8.5179398933E+00  6.2366649377E+00
                       6.3881908400E+00  1.0942578993E+01  6.8030361218E+00
                       0.0000000000E+00  5.6786265955E+00  0.0000000000E+00
                       1.4207190696E+01  8.5179398933E+00  1.0380405828E-01
                       1.7650850794E+01  8.5179398933E+00  5.1023979014E+00
                       1.7515720260E+01  8.5179398933E+00  2.0665101144E+00
                       1.0791620009E+01  8.5179398933E+00  7.0632265693E+00
                       1.6150515297E+01  6.0933007939E+00  6.4968553852E+00
                       9.7623244570E+00  5.6786265955E+00  4.4332971690E+00
                       1.5079782675E+01  2.8393132977E+00  4.5371012273E+00
                       1.1636122577E+01  2.8393132977E+00  6.6910073241E-01
                       1.1771253111E+01  2.8393132977E+00  6.4998072834E+00
                       1.8495353362E+01  2.8393132977E+00  2.6299294003E+00
                       1.3136458074E+01  5.2639523971E+00  2.0635582162E+00
                       1.6150515297E+01  1.0942578993E+01  6.4968553852E+00
                       1.3136458074E+01  4.1467419843E-01  2.0635582162E+00
                       3.3741336170E+00  5.2639523971E+00  2.3697389528E+00
                       6.3881908400E+00  6.0933007939E+00  6.8030361218E+00
            xcart2     0.0000000000E+00  0.0000000000E+00  0.0000000000E+00
                       5.1153211244E+00  2.7638887152E+00  8.7263182786E+00
                       1.8122468097E+00  2.7638887152E+00  3.6945232617E+00
                       1.8683701559E+00  2.7638887152E+00  6.6889254794E+00
                       8.5134948032E+00  2.7638887152E+00  1.7822071315E+00
                       3.2330390329E+00  3.1562722646E-01  2.3494320368E+00
                       9.5196253023E+00  0.0000000000E+00  4.3669859301E+00
                       4.4043041779E+00  8.2916661457E+00  4.3593323485E+00
                       7.7073784926E+00  8.2916661457E+00  8.0615091919E+00
                       7.6512551464E+00  8.2916661457E+00  2.3219395493E+00
                       1.0061304991E+00  8.2916661457E+00  6.1491930617E+00
                       6.2865862694E+00  1.0739927634E+01  6.7164179669E+00
                       0.0000000000E+00  5.5277774304E+00  0.0000000000E+00
                       1.3923929480E+01  8.2916661457E+00  7.6535816700E-03
                       1.7227003795E+01  8.2916661457E+00  5.0394485985E+00
                       1.7170880449E+01  8.2916661457E+00  2.0450463808E+00
                       1.0525755801E+01  8.2916661457E+00  6.9517647287E+00
                       1.5806211572E+01  5.8434046569E+00  6.3845398234E+00
                       9.5196253023E+00  5.5277774304E+00  4.3669859301E+00
                       1.4634946427E+01  2.7638887152E+00  4.3746395118E+00
                       1.1331872112E+01  2.7638887152E+00  6.7246266840E-01
                       1.1387995458E+01  2.7638887152E+00  6.4120323110E+00
                       1.8033120106E+01  2.7638887152E+00  2.5847787986E+00
                       1.2752664335E+01  5.2121502040E+00  2.0175538933E+00
                       1.5806211572E+01  1.0739927634E+01  6.3845398234E+00
                       1.2752664335E+01  3.1562722646E-01  2.0175538933E+00
                       3.2330390329E+00  5.2121502040E+00  2.3494320368E+00
                       6.2865862694E+00  5.8434046569E+00  6.7164179669E+00
             xred1     0.0000000000E+00  0.0000000000E+00  0.0000000000E+00
                       2.7234590702E-01  2.5000000000E-01  9.8829267988E-01
                       9.5970899569E-02  2.5000000000E-01  4.2453689580E-01
                       1.0289192206E-01  2.5000000000E-01  7.6693304829E-01
                       4.4728225044E-01  2.5000000000E-01  2.0338900145E-01
                       1.7281404812E-01  3.6511838862E-02  2.6726597186E-01
                       5.0000000000E-01  0.0000000000E+00  5.0000000000E-01
                       2.2765409298E-01  7.5000000000E-01  4.8829267988E-01
                       4.0402910043E-01  7.5000000000E-01  9.2453689580E-01
                       3.9710807794E-01  7.5000000000E-01  2.6693304829E-01
                       5.2717749564E-02  7.5000000000E-01  7.0338900145E-01
                       3.2718595188E-01  9.6348816114E-01  7.6726597186E-01
                       0.0000000000E+00  5.0000000000E-01  0.0000000000E+00
                       7.2765409298E-01  7.5000000000E-01  1.1707320119E-02
                       9.0402910043E-01  7.5000000000E-01  5.7546310420E-01
                       8.9710807794E-01  7.5000000000E-01  2.3306695171E-01
                       5.5271774956E-01  7.5000000000E-01  7.9661099855E-01
                       8.2718595188E-01  5.3651183886E-01  7.3273402814E-01
                       5.0000000000E-01  5.0000000000E-01  5.0000000000E-01
                       7.7234590702E-01  2.5000000000E-01  5.1170732012E-01
                       5.9597089957E-01  2.5000000000E-01  7.5463104198E-02
                       6.0289192206E-01  2.5000000000E-01  7.3306695171E-01
                       9.4728225044E-01  2.5000000000E-01  2.9661099855E-01
                       6.7281404812E-01  4.6348816114E-01  2.3273402814E-01
                       8.2718595188E-01  9.6348816114E-01  7.3273402814E-01
                       6.7281404812E-01  3.6511838862E-02  2.3273402814E-01
                       1.7281404812E-01  4.6348816114E-01  2.6726597186E-01
                       3.2718595188E-01  5.3651183886E-01  7.6726597186E-01
             xred2     0.0000000000E+00  0.0000000000E+00  0.0000000000E+00
                       2.6867239844E-01  2.5000000000E-01  9.9912369976E-01
                       9.5184776300E-02  2.5000000000E-01  4.2300608713E-01
                       9.8132547057E-02  2.5000000000E-01  7.6585150335E-01
                       4.4715493167E-01  2.5000000000E-01  2.0405459968E-01
                       1.6980915374E-01  2.8549198158E-02  2.6899926796E-01
                       5.0000000000E-01  0.0000000000E+00  5.0000000000E-01
                       2.3132760156E-01  7.5000000000E-01  4.9912369976E-01
                       4.0481522370E-01  7.5000000000E-01  9.2300608713E-01
                       4.0186745294E-01  7.5000000000E-01  2.6585150335E-01
                       5.2845068329E-02  7.5000000000E-01  7.0405459968E-01
                       3.3019084626E-01  9.7145080184E-01  7.6899926796E-01
                       0.0000000000E+00  5.0000000000E-01  0.0000000000E+00
                       7.3132760156E-01  7.5000000000E-01  8.7630024374E-04
                       9.0481522370E-01  7.5000000000E-01  5.7699391287E-01
                       9.0186745294E-01  7.5000000000E-01  2.3414849665E-01
                       5.5284506833E-01  7.5000000000E-01  7.9594540032E-01
                       8.3019084626E-01  5.2854919816E-01  7.3100073204E-01
                       5.0000000000E-01  5.0000000000E-01  5.0000000000E-01
                       7.6867239844E-01  2.5000000000E-01  5.0087630024E-01
                       5.9518477630E-01  2.5000000000E-01  7.6993912867E-02
                       5.9813254706E-01  2.5000000000E-01  7.3414849665E-01
                       9.4715493167E-01  2.5000000000E-01  2.9594540032E-01
                       6.6980915374E-01  4.7145080184E-01  2.3100073204E-01
                       8.3019084626E-01  9.7145080184E-01  7.3100073204E-01
                       6.6980915374E-01  2.8549198158E-02  2.3100073204E-01
                       1.6980915374E-01  4.7145080184E-01  2.6899926796E-01
                       3.3019084626E-01  5.2854919816E-01  7.6899926796E-01
            znucl        3.00000   26.00000   15.00000    8.00000

- Timing analysis has been suppressed with timopt=0

 Suggested references for the acknowledgment of ABINIT usage.

 [1] Ab initio pseudopotentials for electronic structure calculations of poly-atomic systems,
 using density-functional theory.
 M. Fuchs, M. Scheffler, Comput. Phys. Commun. 119, 67 (1999).
 Comment : Some pseudopotential generated using the FHI code were used.

 [2] ABINIT : First-principles approach of materials and nanosystem properties.
 X. Gonze, B. Amadon, P.-M. Anglade, J.-M. Beuken, F. Bottin, P. Boulanger, F. Bruneval,
 D. Caliste, R. Caracas, M. Cote, T. Deutsch, L. Genovese, Ph. Ghosez, M. Giantomassi
 S. Goedecker, D.R. Hamann, P. Hermet, F. Jollet, G. Jomard, S. Leroux, M. Mancini, S. Mazevet,
 M.J.T. Oliveira, G. Onida, Y. Pouillon, T. Rangel, G.-M. Rignanese, D. Sangalli, R. Shaltaf,
 M. Torrent, M.J. Verstraete, G. Zerah, J.W. Zwanziger
 Computer Phys. Comm. 180, 2582-2615 (2009).
 Comment : the third generic paper describing the ABINIT project.
 Note that a version of this paper, that is not formatted for Computer Phys. Comm.
 The licence allows the authors to put it on the Web.

 [3] A brief introduction to the ABINIT software package.
 X. Gonze, G.-M. Rignanese, M. Verstraete, J.-M. Beuken, Y. Pouillon, R. Caracas, F. Jollet,
 M. Torrent, G. Zerah, M. Mikami, Ph. Ghosez, M. Veithen, J.-Y. Raty, V. Olevano, F. Bruneval,
 L. Reining, R. Godby, G. Onida, D.R. Hamann, and D.C. Allan.
 Z. Kristallogr. 220, 558-562 (2005).
 Comment : the second generic paper describing the ABINIT project. Note that this paper
 should be cited especially if you are using the GW part of ABINIT, as several authors
 of this part are not in the list of authors of the first or third paper.
 Note that it should not redistributed (Copyright by Oldenburg Wissenshaftverlag,
 the licence allows the authors to put it on the Web).

 And optionally :

 [4] First-principles computation of material properties : the ABINIT software project.
 X. Gonze, J.-M. Beuken, R. Caracas, F. Detraux, M. Fuchs, G.-M. Rignanese, L. Sindic,
 M. Verstraete, G. Zerah, F. Jollet, M. Torrent, A. Roy, M. Mikami, Ph. Ghosez, J.-Y. Raty, D.C. Allan.
 Comment : the original paper describing the ABINIT project.

 [5] Fast radix 2, 3, 4 and 5 kernels for Fast Fourier Transformations
 on computers with overlapping multiply-add instructions.
 S. Goedecker, SIAM J. on Scientific Computing 18, 1605 (1997).
-

 Calculation completed.
.Delivered    3 WARNINGs and   0 COMMENTs to log file.