.Version 8.4.4 of ABINIT

 ABINIT is a project of the Universite Catholique de Louvain,
 Corning Inc. and other collaborators, see ~abinit/doc/developers/contributors.txt .
 Please read ~abinit/doc/users/acknowledgments.html for suggested
 acknowledgments of the ABINIT effort.

.Starting date : Thu  2 Aug 2018.
- ( at 14h09 )

 === Build Information ===
  Version       : 8.4.4
  Build target  : x86_64_linux_gnu6.3
  Build date    : 20170922

 === Optimizations ===
  Debug level        : basic
  Optimization level : safe
  Architecture       : intel_xeon

 === Multicore ===
  Parallel build : yes
  Parallel I/O   : auto
  openMP support : no
  GPU support    : no

 === Connectors / Fallbacks ===
  Connectors on : yes
  Fallbacks on  : yes
  DFT flavor    : none
  FFT flavor    : none
  LINALG flavor : custom
  MATH flavor   : none
  TIMER flavor  : abinit
  TRIO flavor   : netcdf

 === Experimental features ===
  Bindings            : @enable_bindings@
  Exports             : no
  GW double-precision : no

 Default optimizations:
   -O2

 Optimizations for 20_datashare:
   -O0

 CPP options activated during the build:

                    CC_GNU                   CXX_GNU                    FC_GNU

 HAVE_FC_ALLOCATABLE_DT...             HAVE_FC_ASYNC         HAVE_FC_BACKTRACE

  HAVE_FC_COMMAND_ARGUMENT      HAVE_FC_COMMAND_LINE        HAVE_FC_CONTIGUOUS

           HAVE_FC_CPUTIME              HAVE_FC_EXIT             HAVE_FC_FLUSH

             HAVE_FC_GAMMA            HAVE_FC_GETENV   HAVE_FC_IEEE_EXCEPTIONS

          HAVE_FC_INT_QUAD             HAVE_FC_IOMSG     HAVE_FC_ISO_C_BINDING

  HAVE_FC_ISO_FORTRAN_2008        HAVE_FC_LONG_LINES        HAVE_FC_MOVE_ALLOC

           HAVE_FC_PRIVATE         HAVE_FC_PROTECTED         HAVE_FC_STREAM_IO

            HAVE_FC_SYSTEM          HAVE_FORTRAN2003        HAVE_LIBPAW_ABINIT

      HAVE_LIBTETRA_ABINIT               HAVE_LINALG        HAVE_LINALG_GEMM3M

           HAVE_LINALG_MPI        HAVE_LINALG_SERIAL     HAVE_LINALG_ZDOTC_B*G

     HAVE_LINALG_ZDOTU_B*G                  HAVE_MPI                 HAVE_MPI2

       HAVE_MPI_IALLREDUCE        HAVE_MPI_IALLTOALL       HAVE_MPI_IALLTOALLV

        HAVE_MPI_INTEGER16               HAVE_MPI_IO HAVE_MPI_TYPE_CREATE_S...

               HAVE_NETCDF             HAVE_OS_LINUX         HAVE_TIMER_ABINIT

              USE_MACROAVE

- input  file    -> ges.in
- output file    -> ges.out
- root for input  files -> input_data/idat
- root for output files -> out_data/odat

-instrng: 75 lines of input have been read from file ges.in

 Please give name of formatted atomic psp file
 iofn2 : for atom type 1, psp file is ../../Ge.psp8

 Please give name of formatted atomic psp file
 iofn2 : for atom type 2, psp file is ../../S.psp8
  read the values zionpsp= 14.0 , pspcod=   8 , lmax=   2
  read the values zionpsp=  6.0 , pspcod=   8 , lmax=   2

 inpspheads: deduce mpsang = 3, n1xccc = 2501.
 invars1 : treat image number: 1

 symlatt : the Bravais lattice is oP (primitive orthorhombic)
  xcart  is defined in input file
 ingeo : takes atomic coordinates from input array xcart
  symfind : exit, nsym=           2
    symrel matrices, symafm and tnons are :
   1       1   0   0     0   1   0     0   0   1       1      0.0000  0.0000  0.0000
   2       1   0   0     0  -1   0     0   0   1       1      0.0000  0.5000  0.0000

 symlatt : the Bravais lattice is oP (primitive orthorhombic)

 symlatt : the Bravais lattice is oP (primitive orthorhombic)

--- !COMMENT
src_file: symbrav.F90
src_line: 201
message: |
    The Bravais lattice determined only from the primitive
    vectors, bravais(1)=  3, is more symmetric
    than the real one, iholohedry=  2, obtained by taking into
    account the atomic positions. Start deforming the primitive vector set.
...

 symlatt : the Bravais lattice is mP (primitive monoclinic)
 symspgr : spgroup=   6  Pm   (=Cs^1)
 ingeo : angdeg(1:3)=   90.00000000   90.00000000   90.00000000
 chkneu : initialized the occupation numbers for occopt=    1, spin-unpolarized or antiferromagnetic case :
  2.00  2.00  2.00  2.00  2.00  2.00  2.00  2.00  2.00  2.00  2.00  2.00
  2.00  2.00  2.00  2.00  2.00  2.00  2.00  2.00  0.00  0.00  0.00  0.00
  0.00  0.00  0.00  0.00  0.00  0.00  0.00  0.00  0.00  0.00  0.00  0.00
  0.00  0.00  0.00  0.00  0.00  0.00  0.00  0.00  0.00  0.00  0.00  0.00
  0.00  0.00  0.00  0.00  0.00  0.00  0.00  0.00  0.00  0.00  0.00  0.00
  0.00  0.00  0.00  0.00  0.00  0.00  0.00  0.00  0.00  0.00  0.00  0.00
  0.00  0.00  0.00  0.00  0.00  0.00  0.00  0.00  0.00  0.00  0.00  0.00
  0.00  0.00  0.00  0.00  0.00  0.00  0.00  0.00  0.00  0.00  0.00  0.00
  0.00  0.00  0.00  0.00
npfft, npband, npspinor and npkpt:     1    1    1  512

--- !WARNING
src_file: distrb2.F90
src_line: 107
message: |
    nproc_kpt=512 >= nkpt=16* nsppol=1
...

mpi_setup: mkmem  undefined in the input file.Use default mkmem  = nkpt
 mpi_setup: With nkpt_me=1 and mkmem  = 16, ground state wf handled in core.
mpi_setup: mkqmem undefined in the input file.Use default mkqmem = nkpt
 mpi_setup: With nkpt_me=1 and mkqmem = 16, ground state wf handled in core.
mpi_setup: mk1mem undefined in the input file.Use default mk1mem = nkpt
 mpi_setup: With nkpt_me=1 and mk1mem = 16, ground state wf handled in core.

--- !WARNING
src_file: mpi_setup.F90
src_line: 656
message: |
    Your number of spins*k-points (=16) will not distribute correctly
    You will leave some empty.
    YOU ARE STRONGLY ADVICED TO ACTIVATE AUTOMATIC PARALLELIZATION!
    PUT "AUTOPARAL=1" IN THE INPUT FILE.
...

 For input ecut=  6.050000E+01 best grid ngfft=     200      50      60
       max ecut=  6.107115E+01

 ==== FFT mesh ====
  FFT mesh divisions ........................   200   50   60
  Augmented FFT divisions ...................   201   51   60
  FFT algorithm .............................   112
  FFT cache size ............................    16
 getmpw: optimal value of mpw= 37500

 DATASET    1 : space group Pm (#  6); Bravais mP (primitive monocl.)

 getdim_nloc : deduce lmnmax  =  18, lnmax  =   6,
                      lmnmaxso=  18, lnmaxso=   6.
     intxc =       0    ionmov =       0      iscf =       7    lmnmax =       6
     lnmax =       6     mgfft =     200  mpssoang =       3    mqgrid =    9926
     natom =       4  nloc_mem =       1    nspden =       1   nspinor =       1
    nsppol =       1      nsym =       2    n1xccc =    2501    ntypat =       2
    occopt =       1   xclevel =       1
-    mband =         100        mffmem =           1         mkmem =           1
       mpw =       37500          nfft =      600000          nkpt =          16
  Rough estimation (10% accuracy) of disk space for files :

 The job will continue.
------------- Echo of variables that govern the present computation ------------
-
- outvars: echo of selected default values
-   iomode0 =  0 , fftalg0 =112 , wfoptalg0 =  0
-
- outvars: echo of global parameters not present in the input file
-  max_nthreads =    0
-
 -outvars: echo values of preprocessed input variables --------

 These variables are accessible in NetCDF format (out_data/odat_OUT.nc)

            acell      1.0000000000E+00  1.0000000000E+00  1.0000000000E+00 Bohr
              amu      7.26100000E+01  3.20660000E+01
         berryopt          -1
          dilatmx      1.10000000E+00
             ecut      5.00000000E+01 Hartree
           ecutsm      5.00000000E-01 Hartree
-          fftalg         112
              ixc           3
           jdtset        1
              kpt      5.00000000E-01  6.25000000E-02  6.25000000E-02
                       5.00000000E-01  1.87500000E-01  6.25000000E-02
                       5.00000000E-01  3.12500000E-01  6.25000000E-02
                       5.00000000E-01  4.37500000E-01  6.25000000E-02
                       5.00000000E-01  6.25000000E-02  1.87500000E-01
                       5.00000000E-01  1.87500000E-01  1.87500000E-01
                       5.00000000E-01  3.12500000E-01  1.87500000E-01
                       5.00000000E-01  4.37500000E-01  1.87500000E-01
                       5.00000000E-01  6.25000000E-02  3.12500000E-01
                       5.00000000E-01  1.87500000E-01  3.12500000E-01
                       5.00000000E-01  3.12500000E-01  3.12500000E-01
                       5.00000000E-01  4.37500000E-01  3.12500000E-01
                       5.00000000E-01  6.25000000E-02  4.37500000E-01
                       5.00000000E-01  1.87500000E-01  4.37500000E-01
                       5.00000000E-01  3.12500000E-01  4.37500000E-01
                       5.00000000E-01  4.37500000E-01  4.37500000E-01
         kptrlatt        1    0    0      0    8    0      0    0    8
          kptrlen      5.51489661E+01
P           mkmem           1
            natom           4
            nband         100
           ndtset           1
            ngfft         200      50      60
             nkpt          16
            nstep         160
             nsym           2
           ntypat           2
              occ      2.000000  2.000000  2.000000  2.000000  2.000000  2.000000
                       2.000000  2.000000  2.000000  2.000000  2.000000  2.000000
                       2.000000  2.000000  2.000000  2.000000  2.000000  2.000000
                       2.000000  2.000000  0.000000  0.000000  0.000000  0.000000
                       0.000000  0.000000  0.000000  0.000000  0.000000  0.000000
                       0.000000  0.000000  0.000000  0.000000  0.000000  0.000000
                       0.000000  0.000000  0.000000  0.000000  0.000000  0.000000
                       0.000000  0.000000  0.000000  0.000000  0.000000  0.000000
                       0.000000  0.000000  0.000000  0.000000  0.000000  0.000000
                       0.000000  0.000000  0.000000  0.000000  0.000000  0.000000
                       0.000000  0.000000  0.000000  0.000000  0.000000  0.000000
                       0.000000  0.000000  0.000000  0.000000  0.000000  0.000000
                       0.000000  0.000000  0.000000  0.000000  0.000000  0.000000
                       0.000000  0.000000  0.000000  0.000000  0.000000  0.000000
                       0.000000  0.000000  0.000000  0.000000  0.000000  0.000000
                       0.000000  0.000000  0.000000  0.000000  0.000000  0.000000
                       0.000000  0.000000  0.000000  0.000000
            prtwf           0
            rfdir           1       1       1
            rprim      2.8345891882E+01  0.0000000000E+00  0.0000000000E+00
                       0.0000000000E+00  6.8936207607E+00  0.0000000000E+00
                       0.0000000000E+00  0.0000000000E+00  8.5278212374E+00
           shiftk      5.00000000E-01  5.00000000E-01  5.00000000E-01
          spgroup           6
           symrel      1  0  0   0  1  0   0  0  1       1  0  0   0 -1  0   0  0  1
            tnons      0.0000000  0.0000000  0.0000000     0.0000000  0.5000000  0.0000000
           toldfe      1.00000000E-10 Hartree
            typat      1  1  2  2
              wtk        0.06250    0.06250    0.06250    0.06250    0.06250    0.06250
[...]
   0.92776    0.94303    0.95068    0.95891
 kpt#   9, nband=100, wtk=  0.06250, kpt=  0.5000  0.0625  0.3125 (reduced coord)
  -0.95903   -0.95888   -0.95873   -0.95868   -0.95702   -0.95683   -0.95662   -0.95654
  -0.95599   -0.95587   -0.58114   -0.54440   -0.37767   -0.33105   -0.20244   -0.18822
  -0.15676   -0.15032   -0.11760   -0.09339   -0.00099    0.01235    0.02540    0.05051
   0.08390    0.08734    0.13011    0.13215    0.17416    0.20356    0.21228    0.22511
   0.24242    0.24769    0.26066    0.28363    0.29743    0.31978    0.34227    0.34640
   0.35217    0.37783    0.38602    0.41054    0.41510    0.43536    0.43608    0.44321
   0.44569    0.48249    0.48407    0.50029    0.50882    0.51241    0.51830    0.52476
   0.55024    0.57151    0.57288    0.58390    0.58980    0.60157    0.60195    0.60777
   0.61426    0.62849    0.63218    0.64069    0.64171    0.65308    0.66648    0.67449
   0.68344    0.69355    0.69673    0.70900    0.71615    0.72165    0.72244    0.73688
   0.74568    0.75175    0.75777    0.77801    0.78916    0.79646    0.80685    0.80776
   0.82282    0.84267    0.84347    0.85172    0.85499    0.86050    0.87317    0.88556
   0.89104    0.90087    0.90364    0.92099
 kpt#  10, nband=100, wtk=  0.06250, kpt=  0.5000  0.1875  0.3125 (reduced coord)
  -0.95895   -0.95885   -0.95872   -0.95871   -0.95701   -0.95685   -0.95667   -0.95660
  -0.95594   -0.95584   -0.57295   -0.53903   -0.37602   -0.33202   -0.22830   -0.20588
  -0.18120   -0.15018   -0.11260   -0.10735    0.01156    0.02595    0.03455    0.06072
   0.08763    0.10244    0.13661    0.14372    0.16972    0.21259    0.22366    0.24169
   0.25025    0.25095    0.25630    0.28091    0.28490    0.31758    0.32649    0.33945
   0.35871    0.36084    0.39121    0.39711    0.41567    0.42359    0.43194    0.43779
   0.45228    0.47439    0.47896    0.49232    0.49631    0.50453    0.50454    0.52220
   0.54140    0.54350    0.55550    0.55719    0.58426    0.58494    0.60191    0.60356
   0.60603    0.62190    0.62768    0.64802    0.65307    0.66696    0.67734    0.69039
   0.69661    0.70809    0.71257    0.72289    0.73394    0.73418    0.74371    0.76787
   0.76920    0.77713    0.77845    0.78937    0.79718    0.81509    0.82274    0.82906
   0.83715    0.84007    0.84169    0.85330    0.86269    0.86835    0.87815    0.87818
   0.89399    0.89959    0.90490    0.91160
 kpt#  11, nband=100, wtk=  0.06250, kpt=  0.5000  0.3125  0.3125 (reduced coord)
  -0.95897   -0.95895   -0.95862   -0.95857   -0.95699   -0.95689   -0.95672   -0.95668
  -0.95586   -0.95579   -0.55831   -0.53199   -0.37660   -0.34256   -0.25034   -0.21911
  -0.19242   -0.16049   -0.13549   -0.10754    0.00142    0.03694    0.04915    0.07474
   0.09223    0.12986    0.14702    0.16302    0.17977    0.20400    0.22780    0.23795
   0.26042    0.27037    0.27503    0.28862    0.30522    0.31038    0.32507    0.33354
   0.34060    0.35949    0.36710    0.36833    0.40018    0.41126    0.43073    0.43102
   0.45214    0.45605    0.45810    0.46577    0.48179    0.48938    0.49880    0.53503
   0.53563    0.54141    0.54613    0.56659    0.57598    0.57677    0.60738    0.60917
   0.61347    0.62463    0.63582    0.64979    0.65003    0.66191    0.66443    0.68518
   0.69720    0.71026    0.71588    0.71893    0.74554    0.74882    0.76168    0.76234
   0.77165    0.77863    0.78101    0.79895    0.79959    0.82995    0.84382    0.84520
   0.84748    0.85810    0.87309    0.87419    0.88178    0.89019    0.89194    0.89415
   0.91517    0.92449    0.93110    0.94074
 kpt#  12, nband=100, wtk=  0.06250, kpt=  0.5000  0.4375  0.3125 (reduced coord)
  -0.95904   -0.95903   -0.95849   -0.95847   -0.95698   -0.95695   -0.95674   -0.95672
  -0.95579   -0.95576   -0.54168   -0.53110   -0.37594   -0.36275   -0.24386   -0.21823
  -0.20999   -0.18508   -0.13204   -0.11781    0.01306    0.03672    0.05214    0.06979
   0.10115    0.12227    0.15361    0.16794    0.20917    0.21452    0.22155    0.24514
   0.25757    0.26735    0.29592    0.30676    0.30818    0.31653    0.32977    0.33974
   0.34796    0.35856    0.36602    0.37949    0.39027    0.39174    0.40561    0.42132
   0.42361    0.43935    0.45104    0.45540    0.46647    0.47300    0.50217    0.51582
   0.53213    0.53900    0.54750    0.55150    0.58049    0.59044    0.60454    0.61320
   0.61660    0.62107    0.64143    0.64588    0.66087    0.66313    0.67472    0.69614
   0.70167    0.71051    0.71613    0.72397    0.73782    0.73824    0.75071    0.76652
   0.77794    0.77812    0.78712    0.80734    0.81007    0.82097    0.82434    0.83893
   0.84123    0.84158    0.88066    0.88278    0.89152    0.89534    0.91670    0.91856
   0.92377    0.93399    0.94035    0.95581
 kpt#  13, nband=100, wtk=  0.06250, kpt=  0.5000  0.0625  0.4375 (reduced coord)
  -0.95898   -0.95893   -0.95872   -0.95870   -0.95695   -0.95688   -0.95660   -0.95657
  -0.95595   -0.95591   -0.56887   -0.55570   -0.37135   -0.35515   -0.18433   -0.17606
  -0.16155   -0.15936   -0.10771   -0.09105   -0.00426    0.00865    0.03694    0.05058
   0.06603    0.06720    0.14820    0.15226    0.17540    0.18755    0.21553    0.22391
   0.23202    0.25659    0.27326    0.27724    0.30445    0.30730    0.32147    0.32695
   0.35672    0.36189    0.37736    0.39805    0.43893    0.44605    0.45304    0.46616
   0.47145    0.48270    0.48394    0.49132    0.50963    0.52932    0.53405    0.53616
   0.55614    0.55706    0.57375    0.58593    0.59543    0.60281    0.61186    0.62007
   0.62714    0.62770    0.63843    0.64757    0.64802    0.65702    0.66266    0.66770
   0.67767    0.67966    0.69418    0.69428    0.69846    0.70382    0.71139    0.73051
   0.73802    0.75217    0.76059    0.76948    0.78095    0.78424    0.78645    0.79271
   0.79998    0.80171    0.83283    0.83759    0.84968    0.85680    0.86193    0.88558
   0.88727    0.89404    0.91282    0.91956
 kpt#  14, nband=100, wtk=  0.06250, kpt=  0.5000  0.1875  0.4375 (reduced coord)
  -0.95891   -0.95888   -0.95873   -0.95872   -0.95695   -0.95689   -0.95664   -0.95662
  -0.95591   -0.95587   -0.56148   -0.54933   -0.36818   -0.35285   -0.21938   -0.20652
  -0.17842   -0.16177   -0.10877   -0.10498    0.01547    0.03531    0.04615    0.06231
   0.07568    0.09384    0.15387    0.15758    0.18227    0.19106    0.21152    0.22512
   0.25289    0.26175    0.26883    0.27811    0.29784    0.31119    0.31444    0.33309
   0.35961    0.36030    0.39261    0.39766    0.41480    0.42955    0.43281    0.44267
   0.45535    0.45642    0.46150    0.47002    0.48404    0.49026    0.51274    0.51876
   0.53455    0.54284    0.55374    0.55985    0.58134    0.58448    0.60207    0.62129
   0.63361    0.65022    0.65236    0.66294    0.67092    0.68608    0.68908    0.70085
   0.70155    0.70668    0.71690    0.72939    0.73702    0.73887    0.75099    0.75877
   0.76108    0.76710    0.77466    0.78108    0.78938    0.79769    0.80540    0.80787
   0.81039    0.81870    0.83408    0.84436    0.85178    0.85891    0.86857    0.88287
   0.88398    0.90543    0.90745    0.91364
 kpt#  15, nband=100, wtk=  0.06250, kpt=  0.5000  0.3125  0.4375 (reduced coord)
  -0.95897   -0.95896   -0.95861   -0.95858   -0.95696   -0.95693   -0.95669   -0.95668
  -0.95584   -0.95581   -0.54891   -0.53948   -0.36732   -0.35524   -0.24787   -0.23487
  -0.18731   -0.17353   -0.12992   -0.11831    0.02560    0.05108    0.05814    0.07478
   0.11193    0.13330    0.15179    0.16464    0.19758    0.19910    0.22580    0.22816
   0.24919    0.25677    0.28738    0.29979    0.30926    0.31207    0.32174    0.33359
   0.33472    0.34207    0.36852    0.37215    0.37997    0.40077    0.40692    0.43023
   0.43093    0.43992    0.46347    0.46378    0.47537    0.47932    0.50488    0.50541
   0.52432    0.53263    0.53914    0.54073    0.56923    0.60018    0.60177    0.62467
   0.63003    0.65138    0.65866    0.65886    0.67167    0.68551    0.69664    0.70744
   0.71613    0.72156    0.72417    0.72570    0.74704    0.75094    0.75422    0.76120
   0.77529    0.78327    0.81695    0.81851    0.82575    0.83068    0.83710    0.84514
   0.84935    0.85609    0.87175    0.87183    0.87699    0.88914    0.89124    0.89540
   0.90023    0.90808    0.91120    0.93087
 kpt#  16, nband=100, wtk=  0.06250, kpt=  0.5000  0.4375  0.4375 (reduced coord)
  -0.95905   -0.95904   -0.95849   -0.95847   -0.95698   -0.95696   -0.95672   -0.95671
  -0.95579   -0.95577   -0.53668   -0.53287   -0.37038   -0.36563   -0.24592   -0.23496
  -0.21278   -0.20175   -0.12877   -0.12333    0.03582    0.04540    0.06944    0.07871
   0.13410    0.13770    0.16755    0.16835    0.21123    0.21456    0.23374    0.24748
   0.25821    0.27117    0.28166    0.28464    0.30738    0.31050    0.31404    0.31858
   0.33818    0.34709    0.35012    0.35791    0.37577    0.37924    0.40925    0.41432
   0.42712    0.42816    0.43988    0.45318    0.45843    0.48408    0.50056    0.51625
   0.52315    0.53408    0.54322    0.55024    0.58638    0.58969    0.60209    0.60522
   0.62082    0.62104    0.62450    0.65359    0.66059    0.67248    0.69334    0.71340
   0.73231    0.73421    0.74775    0.75514    0.76043    0.76802    0.77920    0.77926
   0.78710    0.79602    0.80881    0.81562    0.82821    0.83120    0.83856    0.83924
   0.84841    0.85114    0.86304    0.86907    0.88436    0.88627    0.89198    0.90434
   0.90596    0.90815    0.93241    0.94670
 Total charge density [el/Bohr^3]
      Maximum=    2.0152E+00  at reduced coord.    0.2450    0.7600    0.6833
 Next maximum=    2.0152E+00  at reduced coord.    0.2450    0.7400    0.6833
      Minimum=    0.0000E+00  at reduced coord.    0.6450    0.0000    0.0000
 Next minimum=    0.0000E+00  at reduced coord.    0.6500    0.0000    0.0000
   Integrated=    4.0000E+01

 Cartesian components of stress tensor (hartree/bohr^3)
  sigma(1 1)=  3.13351450E-05  sigma(3 2)=  0.00000000E+00
  sigma(2 2)=  5.62530169E-05  sigma(3 1)=  4.93391885E-09
  sigma(3 3)=  5.43734290E-05  sigma(2 1)=  0.00000000E+00

-Cartesian components of stress tensor (GPa)         [Pressure= -1.3922E+00 GPa]
- sigma(1 1)=  9.21911639E-01  sigma(3 2)=  0.00000000E+00
- sigma(2 2)=  1.65502062E+00  sigma(3 1)=  1.45160880E-04
- sigma(3 3)=  1.59972124E+00  sigma(2 1)=  0.00000000E+00

== END DATASET(S) ==============================================================

 -outvars: echo values of variables after computation  --------

 These variables are accessible in NetCDF format (out_data/odat_OUT.nc)

            acell      1.0000000000E+00  1.0000000000E+00  1.0000000000E+00 Bohr
              amu      7.26100000E+01  3.20660000E+01
         berryopt          -1
          dilatmx      1.10000000E+00
             ecut      5.00000000E+01 Hartree
           ecutsm      5.00000000E-01 Hartree
           etotal1    -2.0004785253E+02
            fcart1     6.9897996627E-03 -0.0000000000E+00  2.7693877755E-03
                      -6.9659606396E-03 -0.0000000000E+00  2.7486792758E-03
                       4.5691595208E-03 -0.0000000000E+00 -2.7695569570E-03
                      -4.5929985439E-03 -0.0000000000E+00 -2.7485100943E-03
-          fftalg         112
              ixc           3
           jdtset        1
              kpt      5.00000000E-01  6.25000000E-02  6.25000000E-02
                       5.00000000E-01  1.87500000E-01  6.25000000E-02
                       5.00000000E-01  3.12500000E-01  6.25000000E-02
                       5.00000000E-01  4.37500000E-01  6.25000000E-02
                       5.00000000E-01  6.25000000E-02  1.87500000E-01
                       5.00000000E-01  1.87500000E-01  1.87500000E-01
                       5.00000000E-01  3.12500000E-01  1.87500000E-01
                       5.00000000E-01  4.37500000E-01  1.87500000E-01
                       5.00000000E-01  6.25000000E-02  3.12500000E-01
                       5.00000000E-01  1.87500000E-01  3.12500000E-01
                       5.00000000E-01  3.12500000E-01  3.12500000E-01
                       5.00000000E-01  4.37500000E-01  3.12500000E-01
                       5.00000000E-01  6.25000000E-02  4.37500000E-01
                       5.00000000E-01  1.87500000E-01  4.37500000E-01
                       5.00000000E-01  3.12500000E-01  4.37500000E-01
                       5.00000000E-01  4.37500000E-01  4.37500000E-01
         kptrlatt        1    0    0      0    8    0      0    0    8
          kptrlen      5.51489661E+01
P           mkmem           1
            natom           4
            nband         100
           ndtset           1
            ngfft         200      50      60
             nkpt          16
            nstep         160
             nsym           2
           ntypat           2
              occ      2.000000  2.000000  2.000000  2.000000  2.000000  2.000000
                       2.000000  2.000000  2.000000  2.000000  2.000000  2.000000
                       2.000000  2.000000  2.000000  2.000000  2.000000  2.000000
                       2.000000  2.000000  0.000000  0.000000  0.000000  0.000000
                       0.000000  0.000000  0.000000  0.000000  0.000000  0.000000
                       0.000000  0.000000  0.000000  0.000000  0.000000  0.000000
                       0.000000  0.000000  0.000000  0.000000  0.000000  0.000000
                       0.000000  0.000000  0.000000  0.000000  0.000000  0.000000
                       0.000000  0.000000  0.000000  0.000000  0.000000  0.000000
                       0.000000  0.000000  0.000000  0.000000  0.000000  0.000000
                       0.000000  0.000000  0.000000  0.000000  0.000000  0.000000
                       0.000000  0.000000  0.000000  0.000000  0.000000  0.000000
                       0.000000  0.000000  0.000000  0.000000  0.000000  0.000000
                       0.000000  0.000000  0.000000  0.000000  0.000000  0.000000
                       0.000000  0.000000  0.000000  0.000000  0.000000  0.000000
                       0.000000  0.000000  0.000000  0.000000  0.000000  0.000000
                       0.000000  0.000000  0.000000  0.000000
            prtwf           0
            rfdir           1       1       1
            rprim      2.8345891882E+01  0.0000000000E+00  0.0000000000E+00
                       0.0000000000E+00  6.8936207607E+00  0.0000000000E+00
                       0.0000000000E+00  0.0000000000E+00  8.5278212374E+00
           shiftk      5.00000000E-01  5.00000000E-01  5.00000000E-01
          spgroup           6
           strten1     3.1335144992E-05  5.6253016862E-05  5.4373429006E-05
                       0.0000000000E+00  4.9339188452E-09  0.0000000000E+00
           symrel      1  0  0   0  1  0   0  0  1       1  0  0   0 -1  0   0  0  1
            tnons      0.0000000  0.0000000  0.0000000     0.0000000  0.5000000  0.0000000
           toldfe      1.00000000E-10 Hartree
            typat      1  1  2  2
              wtk        0.06250    0.06250    0.06250    0.06250    0.06250    0.06250
                         0.06250    0.06250    0.06250    0.06250    0.06250    0.06250
                         0.06250    0.06250    0.06250    0.06250
           xangst      1.4076868957E+00  9.1198674782E-01  6.0793396303E-01
                       3.9696851171E+00  2.7359602434E+00  2.8643785953E+00
                       1.6238754013E+00  2.7359602434E+00  2.2509057516E+00
                       3.7536205436E+00  9.1198674782E-01 -5.5362420480E-03
            xcart      2.6601427138E+00  1.7234051902E+00  1.1488286970E+00
                       7.5016177052E+00  5.1702155705E+00  5.4128910860E+00
                       3.0686797823E+00  5.1702155705E+00  4.2535954215E+00
                       7.0933148342E+00  1.7234051902E+00 -1.0461981276E-02
             xred      9.3845793418E-02  2.5000000000E-01  1.3471538216E-01
                       2.6464567552E-01  7.5000000000E-01  6.3473317924E-01
                       1.0825836051E-01  7.5000000000E-01  4.9879040649E-01
                       2.5024137056E-01  2.5000000000E-01 -1.2268058845E-03
            znucl       32.00000   16.00000

 Suggested references for the acknowledgment of ABINIT usage.

 Calculation completed.
.Delivered   0 WARNINGs and   1 COMMENTs to log file.

--- !FinalSummary
program: abinit
version: 8.4.4
start_datetime: Thu Aug 02 14:09:43 2018
end_datetime: Thu Aug 02 14:20:21 2018
overall_cpu_time:      326417.2
overall_wall_time:      326531.7
exit_requested_by_user: no
timelimit: 0
pseudos:
    Ge  : c05c2edabc191c4dd015e078b6973160
    S   : f579e1f6f789b7b4fedb596cdf2a0f24
usepaw: 0
mpi_procs: 512
omp_threads: 1
num_warnings: 0
num_comments: 1
...