.Version 8.0.8 of ABINIT

 ABINIT is a project of the Universite Catholique de Louvain,
 Corning Inc. and other collaborators, see ~abinit/doc/developers/contributors.txt .
 Please read ~abinit/doc/users/acknowledgments.html for suggested
 acknowledgments of the ABINIT effort.

.Starting date : Mon 18 Jul 2016.
- ( at 18h37 )

- input  file    -> inputs/ir-eos_LDApaw8.in
- output file    -> outputs/ir-eos_LDApaw8.out
- root for input  files -> io_xo/ir-eos_LDApaw8_io
- root for output files -> io_xo/ir-eos_LDApaw8_xo

 DATASET    1 : the unit cell is not primitive
     intxc =       0    ionmov =       0      iscf =      17    lmnmax =      18
     lnmax =       6     mgfft =      30  mpssoang =       3    mqgrid =    3001
     natom =       8  nloc_mem =       2    nspden =       1   nspinor =       1
    nsppol =       1      nsym =     192    n1xccc =       1    ntypat =       2
    occopt =       4   xclevel =       1
-    mband =          40        mffmem =           1         mkmem =           4
       mpw =        1343          nfft =       27000          nkpt =          56
Pmy_natom=         1
 PAW method is used; the additional fine FFT grid is defined by:
   mgfftf=        48    nfftf =    110592
  Rough estimation (10% accuracy) of disk space for files :

 DATASET    2 : the unit cell is not primitive
     intxc =       0    ionmov =       0      iscf =      -2    lmnmax =      18
     lnmax =       6     mgfft =      30  mpssoang =       3    mqgrid =    3001
     natom =       8  nloc_mem =       2    nspden =       1   nspinor =       1
    nsppol =       1      nsym =     192    n1xccc =       1    ntypat =       2
    occopt =       4   xclevel =       1
-    mband =          40        mffmem =           1         mkmem =           4
       mpw =        1343          nfft =       27000          nkpt =          56
Pmy_natom=         1
 PAW method is used; the additional fine FFT grid is defined by:
   mgfftf=        48    nfftf =    110592
  Rough estimation (10% accuracy) of disk space for files :

 DATASET    3 : the unit cell is not primitive
     intxc =       0      iscf =      -3    lmnmax =      18     lnmax =       6
     mgfft =      30  mpssoang =       3    mqgrid =    3001     natom =       8
  nloc_mem =       2    nspden =       1   nspinor =       1    nsppol =       1
      nsym =     192    n1xccc =       1    ntypat =       2    occopt =       4
   xclevel =       1
-    mband =          40        mffmem =           1         mkmem =          54
-   mkqmem =          54        mk1mem =          54           mpw =        1343
      nfft =       27000          nkpt =         864
Pmy_natom=         1
  Rough estimation (10% accuracy) of disk space for files :

 DATASET    4 : the unit cell is not primitive
     intxc =       0      iscf =       7    lmnmax =      18     lnmax =       6
     mgfft =      30  mpssoang =       3    mqgrid =    3001     natom =       8
  nloc_mem =       2    nspden =       1   nspinor =       1    nsppol =       1
      nsym =     192    n1xccc =       1    ntypat =       2    occopt =       4
   xclevel =       1
-    mband =          40        mffmem =           1         mkmem =          54
-   mkqmem =          54        mk1mem =          54           mpw =        1343
      nfft =       27000          nkpt =         864
Pmy_natom=         1
  Rough estimation (10% accuracy) of disk space for files :

------------- Echo of variables that govern the present computation ------------
-
- outvars: echo of selected default values
-   iomode0 =  0 , fftalg0 =112 , wfoptalg0 = 10
-
- outvars: echo of global parameters not present in the input file
-  max_nthreads =    0
-
 -outvars: echo values of preprocessed input variables --------
            acell      7.8865567982E+00  7.8865567982E+00  7.8865567982E+00 Bohr
              amu      4.78800000E+01  1.40067400E+01
           diemac      2.00000000E+01
             ecut      1.46997302E+01 Hartree
-          fftalg         112
           getddk1          0
           getddk2          0
           getddk3          3
           getddk4          3
           getden1          0
           getden2          1
           getden3          0
           getden4          0
           getwfk1          0
           getwfk2          1
           getwfk3          2
           getwfk4          2
             iscf1         17
             iscf2         -2
             iscf3         -3
             iscf4          7
              ixc           2
           jdtset        1    2    3    4
              kpt1     4.16666667E-02  4.16666667E-02  4.16666667E-02
                       1.25000000E-01  4.16666667E-02  4.16666667E-02
                       2.08333333E-01  4.16666667E-02  4.16666667E-02
                       2.91666667E-01  4.16666667E-02  4.16666667E-02
                       3.75000000E-01  4.16666667E-02  4.16666667E-02
                       4.58333333E-01  4.16666667E-02  4.16666667E-02
                       1.25000000E-01  1.25000000E-01  4.16666667E-02
                       2.08333333E-01  1.25000000E-01  4.16666667E-02
                       2.91666667E-01  1.25000000E-01  4.16666667E-02
                       3.75000000E-01  1.25000000E-01  4.16666667E-02
                       4.58333333E-01  1.25000000E-01  4.16666667E-02
                       2.08333333E-01  2.08333333E-01  4.16666667E-02
                       2.91666667E-01  2.08333333E-01  4.16666667E-02
                       3.75000000E-01  2.08333333E-01  4.16666667E-02
                       4.58333333E-01  2.08333333E-01  4.16666667E-02
                       2.91666667E-01  2.91666667E-01  4.16666667E-02
                       3.75000000E-01  2.91666667E-01  4.16666667E-02
                       4.58333333E-01  2.91666667E-01  4.16666667E-02
                       3.75000000E-01  3.75000000E-01  4.16666667E-02
                       4.58333333E-01  3.75000000E-01  4.16666667E-02
                       4.58333333E-01  4.58333333E-01  4.16666667E-02
                       1.25000000E-01  1.25000000E-01  1.25000000E-01
                       2.08333333E-01  1.25000000E-01  1.25000000E-01
                       2.91666667E-01  1.25000000E-01  1.25000000E-01
                       3.75000000E-01  1.25000000E-01  1.25000000E-01
                       4.58333333E-01  1.25000000E-01  1.25000000E-01
                       2.08333333E-01  2.08333333E-01  1.25000000E-01
                       2.91666667E-01  2.08333333E-01  1.25000000E-01
                       3.75000000E-01  2.08333333E-01  1.25000000E-01
                       4.58333333E-01  2.08333333E-01  1.25000000E-01
                       2.91666667E-01  2.91666667E-01  1.25000000E-01
                       3.75000000E-01  2.91666667E-01  1.25000000E-01
                       4.58333333E-01  2.91666667E-01  1.25000000E-01
                       3.75000000E-01  3.75000000E-01  1.25000000E-01
                       4.58333333E-01  3.75000000E-01  1.25000000E-01
                       4.58333333E-01  4.58333333E-01  1.25000000E-01
                       2.08333333E-01  2.08333333E-01  2.08333333E-01
                       2.91666667E-01  2.08333333E-01  2.08333333E-01
                       3.75000000E-01  2.08333333E-01  2.08333333E-01
                       4.58333333E-01  2.08333333E-01  2.08333333E-01
                       2.91666667E-01  2.91666667E-01  2.08333333E-01
                       3.75000000E-01  2.91666667E-01  2.08333333E-01
                       4.58333333E-01  2.91666667E-01  2.08333333E-01
                       3.75000000E-01  3.75000000E-01  2.08333333E-01
                       4.58333333E-01  3.75000000E-01  2.08333333E-01
                       4.58333333E-01  4.58333333E-01  2.08333333E-01
                       2.91666667E-01  2.91666667E-01  2.91666667E-01
                       3.75000000E-01  2.91666667E-01  2.91666667E-01
                       4.58333333E-01  2.91666667E-01  2.91666667E-01
                       3.75000000E-01  3.75000000E-01  2.91666667E-01
              kpt2     4.16666667E-02  4.16666667E-02  4.16666667E-02
                       1.25000000E-01  4.16666667E-02  4.16666667E-02
                       2.08333333E-01  4.16666667E-02  4.16666667E-02
                       2.91666667E-01  4.16666667E-02  4.16666667E-02
                       3.75000000E-01  4.16666667E-02  4.16666667E-02
                       4.58333333E-01  4.16666667E-02  4.16666667E-02
                       1.25000000E-01  1.25000000E-01  4.16666667E-02
                       2.08333333E-01  1.25000000E-01  4.16666667E-02
                       2.91666667E-01  1.25000000E-01  4.16666667E-02
                       3.75000000E-01  1.25000000E-01  4.16666667E-02
                       4.58333333E-01  1.25000000E-01  4.16666667E-02
                       2.08333333E-01  2.08333333E-01  4.16666667E-02
                       2.91666667E-01  2.08333333E-01  4.16666667E-02
                       3.75000000E-01  2.08333333E-01  4.16666667E-02
                       4.58333333E-01  2.08333333E-01  4.16666667E-02
                       2.91666667E-01  2.91666667E-01  4.16666667E-02
                       3.75000000E-01  2.91666667E-01  4.16666667E-02
                       4.58333333E-01  2.91666667E-01  4.16666667E-02
                       3.75000000E-01  3.75000000E-01  4.16666667E-02
                       4.58333333E-01  3.75000000E-01  4.16666667E-02
                       4.58333333E-01  4.58333333E-01  4.16666667E-02
                       1.25000000E-01  1.25000000E-01  1.25000000E-01
                       2.08333333E-01  1.25000000E-01  1.25000000E-01
                       2.91666667E-01  1.25000000E-01  1.25000000E-01
                       3.75000000E-01  1.25000000E-01  1.25000000E-01
                       4.58333333E-01  1.25000000E-01  1.25000000E-01
                       2.08333333E-01  2.08333333E-01  1.25000000E-01
                       2.91666667E-01  2.08333333E-01  1.25000000E-01
                       3.75000000E-01  2.08333333E-01  1.25000000E-01
                       4.58333333E-01  2.08333333E-01  1.25000000E-01
                       2.91666667E-01  2.91666667E-01  1.25000000E-01
                       3.75000000E-01  2.91666667E-01  1.25000000E-01
                       4.58333333E-01  2.91666667E-01  1.25000000E-01
                       3.75000000E-01  3.75000000E-01  1.25000000E-01
                       4.58333333E-01  3.75000000E-01  1.25000000E-01
                       4.58333333E-01  4.58333333E-01  1.25000000E-01
                       2.08333333E-01  2.08333333E-01  2.08333333E-01
                       2.91666667E-01  2.08333333E-01  2.08333333E-01
                       3.75000000E-01  2.08333333E-01  2.08333333E-01
                       4.58333333E-01  2.08333333E-01  2.08333333E-01
                       2.91666667E-01  2.91666667E-01  2.08333333E-01
                       3.75000000E-01  2.91666667E-01  2.08333333E-01
                       4.58333333E-01  2.91666667E-01  2.08333333E-01
                       3.75000000E-01  3.75000000E-01  2.08333333E-01
[...]
                       0  1  0   1  0  0   0  0 -1       0  1  0   1  0  0   0  0 -1
                       0  1  0  -1  0  0   0  0 -1       0  1  0  -1  0  0   0  0 -1
                       0  1  0  -1  0  0   0  0 -1       0  1  0  -1  0  0   0  0 -1
                       0 -1  0   1  0  0   0  0  1       0 -1  0   1  0  0   0  0  1
                       0 -1  0   1  0  0   0  0  1       0 -1  0   1  0  0   0  0  1
                       0  0  1   1  0  0   0  1  0       0  0  1   1  0  0   0  1  0
                       0  0  1   1  0  0   0  1  0       0  0  1   1  0  0   0  1  0
                       0  0 -1  -1  0  0   0 -1  0       0  0 -1  -1  0  0   0 -1  0
                       0  0 -1  -1  0  0   0 -1  0       0  0 -1  -1  0  0   0 -1  0
                       0  0 -1   1  0  0   0 -1  0       0  0 -1   1  0  0   0 -1  0
                       0  0 -1   1  0  0   0 -1  0       0  0 -1   1  0  0   0 -1  0
                       0  0  1  -1  0  0   0  1  0       0  0  1  -1  0  0   0  1  0
                       0  0  1  -1  0  0   0  1  0       0  0  1  -1  0  0   0  1  0
                       0  0 -1  -1  0  0   0  1  0       0  0 -1  -1  0  0   0  1  0
                       0  0 -1  -1  0  0   0  1  0       0  0 -1  -1  0  0   0  1  0
                       0  0  1   1  0  0   0 -1  0       0  0  1   1  0  0   0 -1  0
                       0  0  1   1  0  0   0 -1  0       0  0  1   1  0  0   0 -1  0
                       0  0  1  -1  0  0   0 -1  0       0  0  1  -1  0  0   0 -1  0
                       0  0  1  -1  0  0   0 -1  0       0  0  1  -1  0  0   0 -1  0
                       0  0 -1   1  0  0   0  1  0       0  0 -1   1  0  0   0  1  0
                       0  0 -1   1  0  0   0  1  0       0  0 -1   1  0  0   0  1  0
                       1  0  0   0  0  1   0  1  0       1  0  0   0  0  1   0  1  0
                       1  0  0   0  0  1   0  1  0       1  0  0   0  0  1   0  1  0
                      -1  0  0   0  0 -1   0 -1  0      -1  0  0   0  0 -1   0 -1  0
                      -1  0  0   0  0 -1   0 -1  0      -1  0  0   0  0 -1   0 -1  0
                      -1  0  0   0  0  1   0 -1  0      -1  0  0   0  0  1   0 -1  0
                      -1  0  0   0  0  1   0 -1  0      -1  0  0   0  0  1   0 -1  0
                       1  0  0   0  0 -1   0  1  0       1  0  0   0  0 -1   0  1  0
                       1  0  0   0  0 -1   0  1  0       1  0  0   0  0 -1   0  1  0
                      -1  0  0   0  0 -1   0  1  0      -1  0  0   0  0 -1   0  1  0
                      -1  0  0   0  0 -1   0  1  0      -1  0  0   0  0 -1   0  1  0
                       1  0  0   0  0  1   0 -1  0       1  0  0   0  0  1   0 -1  0
                       1  0  0   0  0  1   0 -1  0       1  0  0   0  0  1   0 -1  0
                       1  0  0   0  0 -1   0 -1  0       1  0  0   0  0 -1   0 -1  0
[...]
                       0  0  1   0  1  0   1  0  0       0  0  1   0  1  0   1  0  0
                       0  0 -1   0 -1  0  -1  0  0       0  0 -1   0 -1  0  -1  0  0
                       0  0 -1   0 -1  0  -1  0  0       0  0 -1   0 -1  0  -1  0  0
                       0  0 -1   0  1  0  -1  0  0       0  0 -1   0  1  0  -1  0  0
                       0  0 -1   0  1  0  -1  0  0       0  0 -1   0  1  0  -1  0  0
                       0  0  1   0 -1  0   1  0  0       0  0  1   0 -1  0   1  0  0
                       0  0  1   0 -1  0   1  0  0       0  0  1   0 -1  0   1  0  0
                       0  0 -1   0 -1  0   1  0  0       0  0 -1   0 -1  0   1  0  0
                       0  0 -1   0 -1  0   1  0  0       0  0 -1   0 -1  0   1  0  0
                       0  0  1   0  1  0  -1  0  0       0  0  1   0  1  0  -1  0  0
                       0  0  1   0  1  0  -1  0  0       0  0  1   0  1  0  -1  0  0
                       0  0  1   0 -1  0  -1  0  0       0  0  1   0 -1  0  -1  0  0
                       0  0  1   0 -1  0  -1  0  0       0  0  1   0 -1  0  -1  0  0
                       0  0 -1   0  1  0   1  0  0       0  0 -1   0  1  0   1  0  0
                       0  0 -1   0  1  0   1  0  0       0  0 -1   0  1  0   1  0  0
            tnons      0.0000000  0.0000000  0.0000000     0.0000000  0.5000000  0.5000000
                       0.5000000  0.0000000  0.5000000     0.5000000  0.5000000  0.0000000
                       0.0000000  0.0000000  0.0000000     0.0000000  0.5000000  0.5000000
                       0.5000000  0.0000000  0.5000000     0.5000000  0.5000000  0.0000000
                       0.0000000  0.0000000  0.0000000     0.0000000  0.5000000  0.5000000
                       0.5000000  0.0000000  0.5000000     0.5000000  0.5000000  0.0000000
                       0.0000000  0.0000000  0.0000000     0.0000000  0.5000000  0.5000000
                       0.5000000  0.0000000  0.5000000     0.5000000  0.5000000  0.0000000
                       0.0000000  0.0000000  0.0000000     0.0000000  0.5000000  0.5000000
                       0.5000000  0.0000000  0.5000000     0.5000000  0.5000000  0.0000000
                       0.0000000  0.0000000  0.0000000     0.0000000  0.5000000  0.5000000
                       0.5000000  0.0000000  0.5000000     0.5000000  0.5000000  0.0000000
                       0.0000000  0.0000000  0.0000000     0.0000000  0.5000000  0.5000000
                       0.5000000  0.0000000  0.5000000     0.5000000  0.5000000  0.0000000
                       0.0000000  0.0000000  0.0000000     0.0000000  0.5000000  0.5000000
                       0.5000000  0.0000000  0.5000000     0.5000000  0.5000000  0.0000000
                       0.0000000  0.0000000  0.0000000     0.0000000  0.5000000  0.5000000
                       0.5000000  0.0000000  0.5000000     0.5000000  0.5000000  0.0000000
                       0.0000000  0.0000000  0.0000000     0.0000000  0.5000000  0.5000000
                       0.5000000  0.0000000  0.5000000     0.5000000  0.5000000  0.0000000
                       0.0000000  0.0000000  0.0000000     0.0000000  0.5000000  0.5000000
                       0.5000000  0.0000000  0.5000000     0.5000000  0.5000000  0.0000000
                       0.0000000  0.0000000  0.0000000     0.0000000  0.5000000  0.5000000
                       0.5000000  0.0000000  0.5000000     0.5000000  0.5000000  0.0000000
                       0.0000000  0.0000000  0.0000000     0.0000000  0.5000000  0.5000000
                       0.5000000  0.0000000  0.5000000     0.5000000  0.5000000  0.0000000
                       0.0000000  0.0000000  0.0000000     0.0000000  0.5000000  0.5000000
                       0.5000000  0.0000000  0.5000000     0.5000000  0.5000000  0.0000000
                       0.0000000  0.0000000  0.0000000     0.0000000  0.5000000  0.5000000
                       0.5000000  0.0000000  0.5000000     0.5000000  0.5000000  0.0000000
                       0.0000000  0.0000000  0.0000000     0.0000000  0.5000000  0.5000000
                       0.5000000  0.0000000  0.5000000     0.5000000  0.5000000  0.0000000
                       0.0000000  0.0000000  0.0000000     0.0000000  0.5000000  0.5000000
                       0.5000000  0.0000000  0.5000000     0.5000000  0.5000000  0.0000000
                       0.0000000  0.0000000  0.0000000     0.0000000  0.5000000  0.5000000
                       0.5000000  0.0000000  0.5000000     0.5000000  0.5000000  0.0000000
                       0.0000000  0.0000000  0.0000000     0.0000000  0.5000000  0.5000000
                       0.5000000  0.0000000  0.5000000     0.5000000  0.5000000  0.0000000
                       0.0000000  0.0000000  0.0000000     0.0000000  0.5000000  0.5000000
                       0.5000000  0.0000000  0.5000000     0.5000000  0.5000000  0.0000000
                       0.0000000  0.0000000  0.0000000     0.0000000  0.5000000  0.5000000
                       0.5000000  0.0000000  0.5000000     0.5000000  0.5000000  0.0000000
                       0.0000000  0.0000000  0.0000000     0.0000000  0.5000000  0.5000000
                       0.5000000  0.0000000  0.5000000     0.5000000  0.5000000  0.0000000
                       0.0000000  0.0000000  0.0000000     0.0000000  0.5000000  0.5000000
                       0.5000000  0.0000000  0.5000000     0.5000000  0.5000000  0.0000000
                       0.0000000  0.0000000  0.0000000     0.0000000  0.5000000  0.5000000
                       0.5000000  0.0000000  0.5000000     0.5000000  0.5000000  0.0000000
                       0.0000000  0.0000000  0.0000000     0.0000000  0.5000000  0.5000000
                       0.5000000  0.0000000  0.5000000     0.5000000  0.5000000  0.0000000
                       0.0000000  0.0000000  0.0000000     0.0000000  0.5000000  0.5000000
                       0.5000000  0.0000000  0.5000000     0.5000000  0.5000000  0.0000000
                       0.0000000  0.0000000  0.0000000     0.0000000  0.5000000  0.5000000
                       0.5000000  0.0000000  0.5000000     0.5000000  0.5000000  0.0000000
                       0.0000000  0.0000000  0.0000000     0.0000000  0.5000000  0.5000000
                       0.5000000  0.0000000  0.5000000     0.5000000  0.5000000  0.0000000
                       0.0000000  0.0000000  0.0000000     0.0000000  0.5000000  0.5000000
                       0.5000000  0.0000000  0.5000000     0.5000000  0.5000000  0.0000000
                       0.0000000  0.0000000  0.0000000     0.0000000  0.5000000  0.5000000
                       0.5000000  0.0000000  0.5000000     0.5000000  0.5000000  0.0000000
                       0.0000000  0.0000000  0.0000000     0.0000000  0.5000000  0.5000000
[...]
                       0.5000000  0.0000000  0.5000000     0.5000000  0.5000000  0.0000000
                       0.0000000  0.0000000  0.0000000     0.0000000  0.5000000  0.5000000
                       0.5000000  0.0000000  0.5000000     0.5000000  0.5000000  0.0000000
                       0.0000000  0.0000000  0.0000000     0.0000000  0.5000000  0.5000000
                       0.5000000  0.0000000  0.5000000     0.5000000  0.5000000  0.0000000
                       0.0000000  0.0000000  0.0000000     0.0000000  0.5000000  0.5000000
                       0.5000000  0.0000000  0.5000000     0.5000000  0.5000000  0.0000000
                       0.0000000  0.0000000  0.0000000     0.0000000  0.5000000  0.5000000
                       0.5000000  0.0000000  0.5000000     0.5000000  0.5000000  0.0000000
                       0.0000000  0.0000000  0.0000000     0.0000000  0.5000000  0.5000000
                       0.5000000  0.0000000  0.5000000     0.5000000  0.5000000  0.0000000
                       0.0000000  0.0000000  0.0000000     0.0000000  0.5000000  0.5000000
                       0.5000000  0.0000000  0.5000000     0.5000000  0.5000000  0.0000000
                       0.0000000  0.0000000  0.0000000     0.0000000  0.5000000  0.5000000
                       0.5000000  0.0000000  0.5000000     0.5000000  0.5000000  0.0000000
           toldfe1     2.93994603E-09 Hartree
           toldfe2     0.00000000E+00 Hartree
           toldfe3     0.00000000E+00 Hartree
           toldfe4     0.00000000E+00 Hartree
           tolvrs1     0.00000000E+00
           tolvrs2     0.00000000E+00
           tolvrs3     0.00000000E+00
           tolvrs4     1.00000000E-01
           tolwfr1     0.00000000E+00
           tolwfr2     1.00000000E-08
           tolwfr3     1.00000000E-01
           tolwfr4     0.00000000E+00
            typat      1  1  1  1  2  2  2  2
           useylm           1
              wtk1       0.00463    0.01389    0.01389    0.01389    0.01389    0.01389
                         0.01389    0.02778    0.02778    0.02778    0.02778    0.01389
                         0.02778    0.02778    0.02778    0.01389    0.02778    0.02778
                         0.01389    0.02778    0.01389    0.00463    0.01389    0.01389
                         0.01389    0.01389    0.01389    0.02778    0.02778    0.02778
                         0.01389    0.02778    0.02778    0.01389    0.02778    0.01389
                         0.00463    0.01389    0.01389    0.01389    0.01389    0.02778
                         0.02778    0.01389    0.02778    0.01389    0.00463    0.01389
                         0.01389    0.01389
              wtk2       0.00463    0.01389    0.01389    0.01389    0.01389    0.01389
                         0.01389    0.02778    0.02778    0.02778    0.02778    0.01389
                         0.02778    0.02778    0.02778    0.01389    0.02778    0.02778
                         0.01389    0.02778    0.01389    0.00463    0.01389    0.01389
                         0.01389    0.01389    0.01389    0.02778    0.02778    0.02778
                         0.01389    0.02778    0.02778    0.01389    0.02778    0.01389
                         0.00463    0.01389    0.01389    0.01389    0.01389    0.02778
                         0.02778    0.01389    0.02778    0.01389    0.00463    0.01389
                         0.01389    0.01389
              wtk3       0.00116    0.00116    0.00116    0.00116    0.00116    0.00116
                         0.00116    0.00116    0.00116    0.00116    0.00116    0.00116
                         0.00116    0.00116    0.00116    0.00116    0.00116    0.00116
                         0.00116    0.00116    0.00116    0.00116    0.00116    0.00116
                         0.00116    0.00116    0.00116    0.00116    0.00116    0.00116
                         0.00116    0.00116    0.00116    0.00116    0.00116    0.00116
                         0.00116    0.00116    0.00116    0.00116    0.00116    0.00116
                         0.00116    0.00116    0.00116    0.00116    0.00116    0.00116
                         0.00116    0.00116
              wtk4       0.00116    0.00116    0.00116    0.00116    0.00116    0.00116
                         0.00116    0.00116    0.00116    0.00116    0.00116    0.00116
                         0.00116    0.00116    0.00116    0.00116    0.00116    0.00116
                         0.00116    0.00116    0.00116    0.00116    0.00116    0.00116
                         0.00116    0.00116    0.00116    0.00116    0.00116    0.00116
                         0.00116    0.00116    0.00116    0.00116    0.00116    0.00116
                         0.00116    0.00116    0.00116    0.00116    0.00116    0.00116
                         0.00116    0.00116    0.00116    0.00116    0.00116    0.00116
                         0.00116    0.00116
                       outvars : Printing only first  50 k-points.
           xangst      0.0000000000E+00  0.0000000000E+00  0.0000000000E+00
                       0.0000000000E+00  2.0866930559E+00  2.0866930559E+00
                       2.0866930559E+00  0.0000000000E+00  2.0866930559E+00
                       2.0866930559E+00  2.0866930559E+00  0.0000000000E+00
                       2.0866930559E+00  2.0866930559E+00  2.0866930559E+00
                       2.0866930559E+00  0.0000000000E+00  0.0000000000E+00
                       0.0000000000E+00  2.0866930559E+00  0.0000000000E+00
                       0.0000000000E+00  0.0000000000E+00  2.0866930559E+00
            xcart      0.0000000000E+00  0.0000000000E+00  0.0000000000E+00
                       0.0000000000E+00  3.9432783991E+00  3.9432783991E+00
                       3.9432783991E+00  0.0000000000E+00  3.9432783991E+00
                       3.9432783991E+00  3.9432783991E+00  0.0000000000E+00
                       3.9432783991E+00  3.9432783991E+00  3.9432783991E+00
                       3.9432783991E+00  0.0000000000E+00  0.0000000000E+00
                       0.0000000000E+00  3.9432783991E+00  0.0000000000E+00
                       0.0000000000E+00  0.0000000000E+00  3.9432783991E+00
             xred      0.0000000000E+00  0.0000000000E+00  0.0000000000E+00
                       0.0000000000E+00  5.0000000000E-01  5.0000000000E-01
                       5.0000000000E-01  0.0000000000E+00  5.0000000000E-01
                       5.0000000000E-01  5.0000000000E-01  0.0000000000E+00
                       5.0000000000E-01  5.0000000000E-01  5.0000000000E-01
                       5.0000000000E-01  0.0000000000E+00  0.0000000000E+00
                       0.0000000000E+00  5.0000000000E-01  0.0000000000E+00
                       0.0000000000E+00  0.0000000000E+00  5.0000000000E-01
            znucl       22.00000    7.00000

- Timing analysis has been suppressed with timopt=0

 Suggested references for the acknowledgment of ABINIT usage.

 Calculation completed.
.Delivered   0 WARNINGs and   4 COMMENTs to log file.