.Version 7.6.2 of ABINIT

 ABINIT is a project of the Universite Catholique de Louvain,
 Corning Inc. and other collaborators, see ~abinit/doc/developers/contributors.txt .
 Please read ~abinit/doc/users/acknowledgments.html for suggested
 acknowledgments of the ABINIT effort.

.Starting date : Fri 16 May 2014.
- ( at 10h49 )

- input  file    -> G1d.in
- output file    -> G1d.out
- root for input  files -> temp/G1di
- root for output files -> temp/G1do

- inpspheads : Reading pseudopotential header in XML form from PP/C.GGA_PBE-JTH-paw.xml

 DATASET    1 : space group P6/m m m (#191); Bravais hP (primitive hexag.)
   intxc =         0  ionmov =         0    iscf =        17 xclevel =         2
  lmnmax =         8   lnmax =         4   mband =        35  mffmem =         1
P  mgfft =       216   mkmem =         2 mpssoang=         2     mpw =      5349
  mqgrid =     15044   natom =         2    nfft =    124416    nkpt =         7
  nloalg =         4  nspden =         1 nspinor =         1  nsppol =         1
    nsym =        24  n1xccc =         1  ntypat =         1  occopt =         1
Pmy_natom=         1
 PAW method is used; the additional fine FFT grid is defined by:
   mgfftf=       320    nfftf =    288000
  Rough estimation (10% accuracy) of disk space for files :

 DATASET    2 : space group P6/m m m (#191); Bravais hP (primitive hexag.)
   intxc =         0  ionmov =         0    iscf =        17 xclevel =         2
  lmnmax =         8   lnmax =         4   mband =        35  mffmem =         1
P  mgfft =       216   mkmem =         2 mpssoang=         2     mpw =      5336
  mqgrid =     15044   natom =         2    nfft =    124416    nkpt =         7
  nloalg =         4  nspden =         1 nspinor =         1  nsppol =         1
    nsym =        24  n1xccc =         1  ntypat =         1  occopt =         1
 PAW method is used; the additional fine FFT grid is defined by:
   mgfftf=       320    nfftf =    288000
  Rough estimation (10% accuracy) of disk space for files :

 DATASET    3 : space group P6/m m m (#191); Bravais hP (primitive hexag.)
   intxc =         0  ionmov =         0    iscf =        17 xclevel =         2
  lmnmax =         8   lnmax =         4   mband =        35  mffmem =         1
P  mgfft =       216   mkmem =         2 mpssoang=         2     mpw =      5336
  mqgrid =     15044   natom =         2    nfft =    124416    nkpt =         7
  nloalg =         4  nspden =         1 nspinor =         1  nsppol =         1
    nsym =        24  n1xccc =         1  ntypat =         1  occopt =         1
 PAW method is used; the additional fine FFT grid is defined by:
   mgfftf=       320    nfftf =    288000
  Rough estimation (10% accuracy) of disk space for files :

------------- Echo of variables that govern the present computation ------------
-
- outvars: echo of selected default values
-   accesswff0 =  0 , fftalg0 =112 , wfoptalg0 = 10
-
- outvars: echo of global parameters not present in the input file
-  max_nthreads =    0
-
 -outvars: echo values of preprocessed input variables --------
            acell      4.6669205060E+00  4.6669205060E+00  4.7258979210E+01 Bohr
              amu      1.20110000E+01
             bdgw3          4       5       4       5       4       5
      chksymbreak           0
             ecut1     2.50000000E+01 Hartree
             ecut2     2.49480214E+01 Hartree
             ecut3     2.49480214E+01 Hartree
          ecuteps1     0.00000000E+00 Hartree
          ecuteps2     1.23691700E+01 Hartree
          ecuteps3     0.00000000E+00 Hartree
         ecutsigx1     0.00000000E+00 Hartree
         ecutsigx2     0.00000000E+00 Hartree
         ecutsigx3     2.49480214E+01 Hartree
          ecutwfn1     0.00000000E+00 Hartree
          ecutwfn2     2.49480214E+01 Hartree
          ecutwfn3     2.49480214E+01 Hartree
           getkss1          0
           getkss2         -1
           getkss3         -2
           getscr1          0
           getscr2          0
           getscr3         -1
           getwfk          -1
           istwfk        1    0    0    1    0    0    0
              ixc          11
           jdtset        1    2    3
              kpt      0.00000000E+00  0.00000000E+00  0.00000000E+00
                       1.66666667E-01  0.00000000E+00  0.00000000E+00
                       3.33333333E-01  0.00000000E+00  0.00000000E+00
                       5.00000000E-01  0.00000000E+00  0.00000000E+00
                       1.66666667E-01  1.66666667E-01  0.00000000E+00
                       3.33333333E-01  1.66666667E-01  0.00000000E+00
                       3.33333333E-01  3.33333333E-01  0.00000000E+00
            kptgw3     0.00000000E+00  0.00000000E+00  0.00000000E+00
                       3.33333333E-01  3.33333333E-01  0.00000000E+00
                       3.33333333E-01  6.66666667E-01  0.00000000E+00
         kptrlatt        6    0    0      0    6    0      0    0    1
          kptrlen      2.80015230E+01
          kssform1          3
          kssform2          1
          kssform3          1
P           mkmem           2
            natom           2
            nband          35
         nbandkss1         -1
         nbandkss2          0
         nbandkss3          0
           ndtset           3
            ngfft          24      24     216
          ngfftdg          30      30     320
             nkpt           7
           nkptgw1          0
           nkptgw2          0
           nkptgw3          3
-           npkpt1          4
-           npkpt2          1
-           npkpt3          1
           npweps1          0
           npweps2       1911
           npweps3          0
          npwsigx1          0
          npwsigx2          0
          npwsigx3       5279
           npwwfn1          0
           npwwfn2       5279
           npwwfn3       5279
           nsheps1          0
           nsheps2        172
           nsheps3          0
          nshsigx1          0
          nshsigx2          0
          nshsigx3        398
            nstep         100
             nsym          24
           ntypat           1
              occ      2.000000  2.000000  2.000000  2.000000  0.000000  0.000000
                       0.000000  0.000000  0.000000  0.000000  0.000000  0.000000
                       0.000000  0.000000  0.000000  0.000000  0.000000  0.000000
                       0.000000  0.000000  0.000000  0.000000  0.000000  0.000000
                       0.000000  0.000000  0.000000  0.000000  0.000000  0.000000
                       0.000000  0.000000  0.000000  0.000000  0.000000
        optdriver1          0
        optdriver2          3
        optdriver3          4
       paral_atom1          1
       paral_atom2          0
       paral_atom3          0
        pawecutdg      5.00000000E+01 Hartree
           ppmfrq1     0.00000000E+00 Hartree
           ppmfrq2     1.83746627E+00 Hartree
           ppmfrq3     0.00000000E+00 Hartree
            rprim      1.0000000000E+00  0.0000000000E+00  0.0000000000E+00
                      -5.0000000000E-01  8.6602540378E-01  0.0000000000E+00
                       6.1232339957E-17  1.0605752387E-16  1.0000000000E+00
          spgroup         191
        symmorphi           0
           symrel      1  0  0   0  1  0   0  0  1      -1  0  0   0 -1  0   0  0 -1
                       0  1  0   1  0  0   0  0  1       0 -1  0  -1  0  0   0  0 -1
                       1  1  0  -1  0  0   0  0  1      -1 -1  0   1  0  0   0  0 -1
                      -1  0  0   1  1  0   0  0  1       1  0  0  -1 -1  0   0  0 -1
                       0  1  0  -1 -1  0   0  0  1       0 -1  0   1  1  0   0  0 -1
                      -1 -1  0   0  1  0   0  0  1       1  1  0   0 -1  0   0  0 -1
                      -1  0  0   0 -1  0   0  0  1       1  0  0   0  1  0   0  0 -1
                       0 -1  0  -1  0  0   0  0  1       0  1  0   1  0  0   0  0 -1
                      -1 -1  0   1  0  0   0  0  1       1  1  0  -1  0  0   0  0 -1
                       1  0  0  -1 -1  0   0  0  1      -1  0  0   1  1  0   0  0 -1
                       0 -1  0   1  1  0   0  0  1       0  1  0  -1 -1  0   0  0 -1
                       1  1  0   0 -1  0   0  0  1      -1 -1  0   0  1  0   0  0 -1
           toldfe      1.00000000E-06 Hartree
            typat      1  1
           useylm           1
              wtk        0.02778    0.16667    0.16667    0.08333    0.16667    0.33333
                         0.05556
           xangst      4.7000377687E-16  1.4258403710E+00  0.0000000000E+00
                       1.2348139830E+00  7.1292018551E-01  0.0000000000E+00
            xcart      8.8817841970E-16  2.6944478104E+00  0.0000000000E+00
                       2.3334602530E+00  1.3472239052E+00  0.0000000000E+00
             xred      3.3333333333E-01  6.6666666667E-01  0.0000000000E+00
                       6.6666666667E-01  3.3333333333E-01  0.0000000000E+00
            znucl        6.00000

 chkinp: Checking input parameters for consistency, jdtset=   1.

[...]

 chkinp: Checking input parameters for consistency, jdtset=   3.

== DATASET  1 ==================================================================
-   nproc =    4

 Real(R)+Recip(G) space primitive vectors, cartesian coordinates (Bohr,Bohr^-1):
 R(1)=  4.6669205  0.0000000  0.0000000  G(1)=  0.2142741  0.1237112  0.0000000
 R(2)= -2.3334603  4.0416717  0.0000000  G(2)=  0.0000000  0.2474224  0.0000000
 R(3)=  0.0000000  0.0000000 47.2589792  G(3)=  0.0000000  0.0000000  0.0211600
 Unit cell volume ucvol=  8.9140646E+02 bohr^3
 Angles (23,13,12)=  9.00000000E+01  9.00000000E+01  1.20000000E+02 degrees

 Coarse grid specifications (used for wave-functions):

 getcut: wavevector=  0.0000  0.0000  0.0000  ngfft=  24  24 216
         ecut(hartree)=     25.000   => boxcut(ratio)=   2.03065

 Fine grid specifications (used for densities):

 getcut: wavevector=  0.0000  0.0000  0.0000  ngfft=  30  30 320
         ecut(hartree)=     50.000   => boxcut(ratio)=   2.02098

--- Pseudopotential description ------------------------------------------------
- pspini: atom type   1  psp file is PP/C.GGA_PBE-JTH-paw.xml
- pspatm: opening atomic psp file    PP/C.GGA_PBE-JTH-paw.xml
- pspatm : Reading pseudopotential header in XML form from PP/C.GGA_PBE-JTH-paw.xml
 Pseudopotential format is: paw10
 basis_size (lnmax)=  4 (lmn_size=  8), orbitals=   0   0   1   1
 Spheres core radius: rc_sph= 1.55000000
 5 radial meshes are used:
  - mesh 1: r(i)=AA*[exp(BB*(i-1))-1], size= 560 , AA= 0.20016E-02 BB= 0.12010E-01
  - mesh 2: r(i)=AA*[exp(BB*(i-1))-1], size= 555 , AA= 0.20016E-02 BB= 0.12010E-01
  - mesh 3: r(i)=AA*[exp(BB*(i-1))-1], size= 585 , AA= 0.20016E-02 BB= 0.12010E-01
  - mesh 4: r(i)=AA*[exp(BB*(i-1))-1], size= 710 , AA= 0.20016E-02 BB= 0.12010E-01
  - mesh 5: r(i)=AA*[exp(BB*(i-1))-1], size= 745 , AA= 0.20016E-02 BB= 0.12010E-01
 Shapefunction is BESSEL type: shapef(r,l)=aa(1,l)*jl(q(1,l)*r)+aa(2,l)*jl(q(2,l)*r)
 Radius for shape functions =  1.55000000
 mmax=  560
 Radial grid used for partial waves is grid 1
 Radial grid used for projectors is grid 2
[...]
            23.43  23.52  23.73  24.48  24.49
  3        -20.23 -12.94  -9.08  -7.94   1.54   3.58   4.27   4.33   4.37   4.91
             5.25   6.22   6.68   8.06   8.66  10.38  11.10  12.42  12.79  12.95
            14.05  14.37  15.21  15.54  15.63  16.22  16.45  16.96  17.47  17.88
            18.08  19.08  19.49  19.77  20.88
  4        -17.59 -16.53  -9.72  -5.69  -1.67   3.96   7.87   8.02   8.71   8.86
             8.86   8.89   9.30   9.43   9.76   9.78  10.53  10.75  11.14  11.17
            12.14  12.61  13.03  13.08  14.06  15.00  15.31  15.43  16.34  16.44
            17.66  17.87  18.18  18.19  19.13
  5        -20.87 -11.08  -9.72  -8.64   2.72   2.99   3.39   3.46   3.99   4.33
             5.31   5.76   6.61   7.15   7.77   8.10   9.49  10.23  12.13  13.17
            13.90  14.18  16.30  16.63  18.95  19.39  19.39  19.68  19.82  19.84
            20.09  20.21  20.52  20.75  20.81
  6        -18.39 -14.71 -11.35  -5.98  -0.84   6.19   6.63   6.94   7.03   7.50
             7.96   8.70   9.36   9.98  10.51  11.22  11.32  12.48  12.69  12.99
            13.11  13.62  13.71  13.82  14.65  15.03  16.14  16.50  16.54  16.85
            17.32  18.00  18.07  18.45  18.64
  7        -15.91 -15.91 -13.83  -3.34  -3.34   7.27   9.55   9.55  10.19  11.57
            11.57  11.59  11.60  11.60  11.85  12.12  12.12  12.14  12.14  12.39
            12.70  12.86  12.86  13.47  13.47  13.52  14.09  14.21  14.21  14.94
            15.31  15.31  16.04  16.14  16.14

 test on the normalization of the wavefunctions
 min sum_G |a(n,k,G)| =  0.999998
 max sum_G |a(n,k,G)| =  1.000001
 test on the orthogonalization of the wavefunctions (NB: this is not invariant for degenerate states)
- min sum_G a(n,k,G)a(n",k,G) =  0.000000
- max sum_G a(n,k,G)a(n",k,G) =  0.000001

 PAW TEST:
 ==== Compensation charge inside spheres ============
 The following values must be close...
 Compensation charge over spherical meshes =      0.455127298848754
 Compensation charge over fine fft grid    =      0.455127195982668

 Total number of electrons per unit cell =    8.0000 (Spherical mesh),    8.0000 (FFT mesh)
 average of density, n =  0.008975
 r_s =    2.9851
 omega_plasma =    9.1382 [eV]

 ==== Results concerning PAW augmentation regions ====

 Total pseudopotential strength Dij (hartree):
 Atom #  1
   0.52786   0.90628   0.00000   0.00000   0.00000   0.00000   0.00000   0.00000
   0.90628   1.55439   0.00000   0.00000   0.00000   0.00000   0.00000   0.00000
   0.00000   0.00000  -0.12258   0.00000   0.00000  -0.15420   0.00000   0.00000
   0.00000   0.00000   0.00000  -0.12100   0.00000   0.00000  -0.15242   0.00000
   0.00000   0.00000   0.00000   0.00000  -0.12258   0.00000   0.00000  -0.15420
   0.00000   0.00000  -0.15420   0.00000   0.00000  -0.18754   0.00000   0.00000
   0.00000   0.00000   0.00000  -0.15242   0.00000   0.00000  -0.18553   0.00000
   0.00000   0.00000   0.00000   0.00000  -0.15420   0.00000   0.00000  -0.18754
 Atom #  2
   0.52786   0.90628   0.00000   0.00000   0.00000   0.00000   0.00000   0.00000
   0.90628   1.55439   0.00000   0.00000   0.00000   0.00000   0.00000   0.00000
   0.00000   0.00000  -0.12258   0.00000   0.00000  -0.15420   0.00000   0.00000
   0.00000   0.00000   0.00000  -0.12100   0.00000   0.00000  -0.15242   0.00000
   0.00000   0.00000   0.00000   0.00000  -0.12258   0.00000   0.00000  -0.15420
   0.00000   0.00000  -0.15420   0.00000   0.00000  -0.18754   0.00000   0.00000
   0.00000   0.00000   0.00000  -0.15242   0.00000   0.00000  -0.18553   0.00000
   0.00000   0.00000   0.00000   0.00000  -0.15420   0.00000   0.00000  -0.18754

 Augmentation waves occupancies Rhoij:
 Atom #  1
   4.69720  -1.26367   0.00000   0.00000   0.00000   0.00000   0.00000   0.00000
  -1.26367   0.36757   0.00000   0.00000   0.00000   0.00000   0.00000   0.00000
   0.00000   0.00000   0.19137   0.00000   0.00000  -0.12303   0.00000   0.00000
   0.00000   0.00000   0.00000   0.22092   0.00000   0.00000   0.16101   0.00000
   0.00000   0.00000   0.00000   0.00000   0.19137   0.00000   0.00000  -0.12303
   0.00000   0.00000  -0.12303   0.00000   0.00000   1.04099   0.00000   0.00000
   0.00000   0.00000   0.00000   0.16101   0.00000   0.00000   0.28036   0.00000
   0.00000   0.00000   0.00000   0.00000  -0.12303   0.00000   0.00000   1.04099
 Atom #  2
   4.69720  -1.26367   0.00000   0.00000   0.00000   0.00000   0.00000   0.00000
  -1.26367   0.36757   0.00000   0.00000   0.00000   0.00000   0.00000   0.00000
   0.00000   0.00000   0.19137   0.00000   0.00000  -0.12303   0.00000   0.00000
   0.00000   0.00000   0.00000   0.22092   0.00000   0.00000   0.16101   0.00000
   0.00000   0.00000   0.00000   0.00000   0.19137   0.00000   0.00000  -0.12303
   0.00000   0.00000  -0.12303   0.00000   0.00000   1.04099   0.00000   0.00000
   0.00000   0.00000   0.00000   0.16101   0.00000   0.00000   0.28036   0.00000
   0.00000   0.00000   0.00000   0.00000  -0.12303   0.00000   0.00000   1.04099

 SIGMA fundamental parameters:
 PLASMON POLE MODEL  1
 number of plane-waves for SigmaX                 5279
 number of plane-waves for SigmaC and W           1911
 number of plane-waves for wavefunctions          5279
 number of bands                                    35
 number of independent spin polarizations            1
 number of spinorial components                      1
 number of k-points in IBZ                           7
 number of q-points in IBZ                           7
 number of symmetry operations                      24
 number of k-points in BZ                           36
 number of q-points in BZ                           36
 number of frequencies for dSigma/dE                 9
 frequency step for dSigma/dE [eV]                0.25
 number of omega for Sigma on real axis              0
 max omega for Sigma on real axis  [eV]           0.00
 zcut for avoiding poles [eV]                     0.10

 EPSILON^-1 parameters (SCR file):
 dimension of the eps^-1 matrix on file           1911
 dimension of the eps^-1 matrix used              1911
 number of plane-waves for wavefunctions          5279
 number of bands                                    35
 number of q-points in IBZ                           7
 number of frequencies                               2
 number of real frequencies                          1
 number of imag frequencies                          1

 matrix elements of self-energy operator (all in [eV])

 Perturbative Calculation

 k =    0.000   0.000   0.000
 Band     E0 <VxcLDA>   SigX SigC(E0)      Z dSigC/dE  Sig(E)    E-E0       E
    4  -6.359 -17.258 -21.116   3.194   0.818  -0.223 -17.801  -0.543  -6.902
    5   0.059  -3.105  -0.913  -1.560   0.915  -0.093  -2.527   0.578   0.637

 E^0_gap          6.418
 E^GW_gap         7.540
 DeltaE^GW_gap    1.121

[...]

 k =    0.333   0.667   0.000
 Band     E0 <VxcLDA>   SigX SigC(E0)      Z dSigC/dE  Sig(E)    E-E0       E
    4  -7.938 -13.164 -16.825   2.622   0.791  -0.265 -13.985  -0.821  -8.759
    5   1.539 -13.978  -7.496  -3.164   0.799  -0.252 -11.328   2.650   4.188

 E^0_gap          9.477
 E^GW_gap        12.947
 DeltaE^GW_gap    3.470

== END DATASET(S) ==============================================================

 -outvars: echo values of variables after computation  --------
            acell      4.6669205060E+00  4.6669205060E+00  4.7258979210E+01 Bohr
              amu      1.20110000E+01
             bdgw3          4       5       4       5       4       5
      chksymbreak           0
             ecut1     2.50000000E+01 Hartree
             ecut2     2.49480214E+01 Hartree
             ecut3     2.49480214E+01 Hartree
          ecuteps1     0.00000000E+00 Hartree
          ecuteps2     1.23691700E+01 Hartree
          ecuteps3     0.00000000E+00 Hartree
         ecutsigx1     0.00000000E+00 Hartree
         ecutsigx2     0.00000000E+00 Hartree
         ecutsigx3     2.49480214E+01 Hartree
          ecutwfn1     0.00000000E+00 Hartree
          ecutwfn2     2.49480214E+01 Hartree
          ecutwfn3     2.49480214E+01 Hartree
           etotal1    -1.1493594725E+01
           etotal2     0.0000000000E+00
           etotal3     0.0000000000E+00
            fcart1     0.0000000000E+00  0.0000000000E+00  0.0000000000E+00
                       0.0000000000E+00  0.0000000000E+00  0.0000000000E+00
            fcart2     0.0000000000E+00  0.0000000000E+00  0.0000000000E+00
                       0.0000000000E+00  0.0000000000E+00  0.0000000000E+00
            fcart3     0.0000000000E+00  0.0000000000E+00  0.0000000000E+00
                       0.0000000000E+00  0.0000000000E+00  0.0000000000E+00
           getkss1          0
           getkss2         -1
           getkss3         -2
           getscr1          0
           getscr2          0
           getscr3         -1
           getwfk          -1
           istwfk        1    0    0    1    0    0    0
              ixc          11
           jdtset        1    2    3
              kpt      0.00000000E+00  0.00000000E+00  0.00000000E+00
                       1.66666667E-01  0.00000000E+00  0.00000000E+00
                       3.33333333E-01  0.00000000E+00  0.00000000E+00
                       5.00000000E-01  0.00000000E+00  0.00000000E+00
                       1.66666667E-01  1.66666667E-01  0.00000000E+00
                       3.33333333E-01  1.66666667E-01  0.00000000E+00
                       3.33333333E-01  3.33333333E-01  0.00000000E+00
            kptgw3     0.00000000E+00  0.00000000E+00  0.00000000E+00
                       3.33333333E-01  3.33333333E-01  0.00000000E+00
                       3.33333333E-01  6.66666667E-01  0.00000000E+00
         kptrlatt        6    0    0      0    6    0      0    0    1
          kptrlen      2.80015230E+01
          kssform1          3
          kssform2          1
          kssform3          1
P           mkmem           2
            natom           2
            nband          35
         nbandkss1         -1
         nbandkss2          0
         nbandkss3          0
           ndtset           3
            ngfft          24      24     216
          ngfftdg          30      30     320
             nkpt           7
           nkptgw1          0
           nkptgw2          0
           nkptgw3          3
-           npkpt1          4
-           npkpt2          1
-           npkpt3          1
           npweps1          0
           npweps2       1911
           npweps3          0
          npwsigx1          0
          npwsigx2          0
          npwsigx3       5279
           npwwfn1          0
           npwwfn2       5279
           npwwfn3       5279
           nsheps1          0
           nsheps2        172
           nsheps3          0
          nshsigx1          0
          nshsigx2          0
          nshsigx3        398
            nstep         100
             nsym          24
           ntypat           1
              occ      2.000000  2.000000  2.000000  2.000000  0.000000  0.000000
                       0.000000  0.000000  0.000000  0.000000  0.000000  0.000000
                       0.000000  0.000000  0.000000  0.000000  0.000000  0.000000
                       0.000000  0.000000  0.000000  0.000000  0.000000  0.000000
                       0.000000  0.000000  0.000000  0.000000  0.000000  0.000000
                       0.000000  0.000000  0.000000  0.000000  0.000000
        optdriver1          0
        optdriver2          3
        optdriver3          4
       paral_atom1          1
       paral_atom2          0
       paral_atom3          0
        pawecutdg      5.00000000E+01 Hartree
           ppmfrq1     0.00000000E+00 Hartree
           ppmfrq2     1.83746627E+00 Hartree
           ppmfrq3     0.00000000E+00 Hartree
            rprim      1.0000000000E+00  0.0000000000E+00  0.0000000000E+00
                      -5.0000000000E-01  8.6602540378E-01  0.0000000000E+00
                       6.1232339957E-17  1.0605752387E-16  1.0000000000E+00
          spgroup         191
           strten1    -1.2794811099E-06 -1.2794811099E-06 -7.1087990037E-06
                       0.0000000000E+00  0.0000000000E+00  0.0000000000E+00
           strten2     0.0000000000E+00  0.0000000000E+00  0.0000000000E+00
                       0.0000000000E+00  0.0000000000E+00  0.0000000000E+00
           strten3     0.0000000000E+00  0.0000000000E+00  0.0000000000E+00
                       0.0000000000E+00  0.0000000000E+00  0.0000000000E+00
        symmorphi           0
           symrel      1  0  0   0  1  0   0  0  1      -1  0  0   0 -1  0   0  0 -1
                       0  1  0   1  0  0   0  0  1       0 -1  0  -1  0  0   0  0 -1
                       1  1  0  -1  0  0   0  0  1      -1 -1  0   1  0  0   0  0 -1
                      -1  0  0   1  1  0   0  0  1       1  0  0  -1 -1  0   0  0 -1
                       0  1  0  -1 -1  0   0  0  1       0 -1  0   1  1  0   0  0 -1
                      -1 -1  0   0  1  0   0  0  1       1  1  0   0 -1  0   0  0 -1
                      -1  0  0   0 -1  0   0  0  1       1  0  0   0  1  0   0  0 -1
                       0 -1  0  -1  0  0   0  0  1       0  1  0   1  0  0   0  0 -1
                      -1 -1  0   1  0  0   0  0  1       1  1  0  -1  0  0   0  0 -1
                       1  0  0  -1 -1  0   0  0  1      -1  0  0   1  1  0   0  0 -1
                       0 -1  0   1  1  0   0  0  1       0  1  0  -1 -1  0   0  0 -1
                       1  1  0   0 -1  0   0  0  1      -1 -1  0   0  1  0   0  0 -1
           toldfe      1.00000000E-06 Hartree
            typat      1  1
           useylm           1
              wtk        0.02778    0.16667    0.16667    0.08333    0.16667    0.33333
                         0.05556
           xangst      4.7000377687E-16  1.4258403710E+00  0.0000000000E+00
                       1.2348139830E+00  7.1292018551E-01  0.0000000000E+00
            xcart      8.8817841970E-16  2.6944478104E+00  0.0000000000E+00
                       2.3334602530E+00  1.3472239052E+00  0.0000000000E+00
             xred      3.3333333333E-01  6.6666666667E-01  0.0000000000E+00
                       6.6666666667E-01  3.3333333333E-01  0.0000000000E+00
            znucl        6.00000

- Timing analysis has been suppressed with timopt=0

 Suggested references for the acknowledgment of ABINIT usage.

 [1] Implementation of the Projector Augmented-Wave Method in the ABINIT code.
 M. Torrent, F. Jollet, F. Bottin, G. Zerah, and X. Gonze Comput. Mat. Science 42, 337, (2008).
 Comment : PAW calculations. Strong suggestion to cite this paper.

 [2] ABINIT : First-principles approach of materials and nanosystem properties.
 X. Gonze, B. Amadon, P.-M. Anglade, J.-M. Beuken, F. Bottin, P. Boulanger, F. Bruneval,
 D. Caliste, R. Caracas, M. Cote, T. Deutsch, L. Genovese, Ph. Ghosez, M. Giantomassi
 S. Goedecker, D.R. Hamann, P. Hermet, F. Jollet, G. Jomard, S. Leroux, M. Mancini, S. Mazevet,
 M.J.T. Oliveira, G. Onida, Y. Pouillon, T. Rangel, G.-M. Rignanese, D. Sangalli, R. Shaltaf,
 M. Torrent, M.J. Verstraete, G. Zerah, J.W. Zwanziger
 Computer Phys. Comm. 180, 2582-2615 (2009).
 Comment : the third generic paper describing the ABINIT project.
 Note that a version of this paper, that is not formatted for Computer Phys. Comm.
 The licence allows the authors to put it on the Web.

 [3] A brief introduction to the ABINIT software package.
 X. Gonze, G.-M. Rignanese, M. Verstraete, J.-M. Beuken, Y. Pouillon, R. Caracas, F. Jollet,
 M. Torrent, G. Zerah, M. Mikami, Ph. Ghosez, M. Veithen, J.-Y. Raty, V. Olevano, F. Bruneval,
 L. Reining, R. Godby, G. Onida, D.R. Hamann, and D.C. Allan.
 Z. Kristallogr. 220, 558-562 (2005).
 Comment : the second generic paper describing the ABINIT project. Note that this paper
 should be cited especially if you are using the GW part of ABINIT, as several authors
 of this part are not in the list of authors of the first or third paper.
 Note that it should not redistributed (Copyright by Oldenburg Wissenshaftverlag,
 the licence allows the authors to put it on the Web).

 And optionally :

 [4] First-principles computation of material properties : the ABINIT software project.
 X. Gonze, J.-M. Beuken, R. Caracas, F. Detraux, M. Fuchs, G.-M. Rignanese, L. Sindic,
 M. Verstraete, G. Zerah, F. Jollet, M. Torrent, A. Roy, M. Mikami, Ph. Ghosez, J.-Y. Raty, D.C. Allan.
 Comment : the original paper describing the ABINIT project.

 [5] Fast radix 2, 3, 4 and 5 kernels for Fast Fourier Transformations
 on computers with overlapping multiply-add instructions.
 S. Goedecker, SIAM J. on Scientific Computing 18, 1605 (1997).
-

 Calculation completed.
.Delivered    3 WARNINGs and   0 COMMENTs to log file.