.Version 8.10.2 of ABINIT

 ABINIT is a project of the Universite Catholique de Louvain,
 Corning Inc. and other collaborators, see ~abinit/doc/developers/contributors.txt .
 acknowledgments of the ABINIT effort.

.Starting date : Mon  8 Apr 2019.
- ( at 22h44 )

 === Build Information ===
  Version       : 8.10.2
  Build target  : x86_64_linux_gnu6.3
  Build date    : 20190203

 === Optimizations ===
  Debug level        : basic
  Optimization level : aggressive
  Architecture       : intel_xeon

 === Multicore ===
  Parallel build : yes
  Parallel I/O   : yes
  openMP support : no
  GPU support    : no

 === Connectors / Fallbacks ===
  Connectors on : yes
  Fallbacks on  : yes
  LINALG flavor : netlib
  MATH flavor   : none
  TIMER flavor  : abinit
  TRIO flavor   : none

 === Experimental features ===
  Bindings            : @enable_bindings@
  Exports             : no
  GW double-precision : no

 Default optimizations:
   -O3 -mtune=native -march=native -funroll-loops -faggressive-function-elimination

 Optimizations for 43_ptgroups:
   -O0

 CPP options activated during the build:

                    CC_GNU                   CXX_GNU                    FC_GNU

 HAVE_FC_ALLOCATABLE_DT...             HAVE_FC_ASYNC         HAVE_FC_BACKTRACE

  HAVE_FC_COMMAND_ARGUMENT      HAVE_FC_COMMAND_LINE        HAVE_FC_CONTIGUOUS

           HAVE_FC_CPUTIME              HAVE_FC_EXIT             HAVE_FC_FLUSH

             HAVE_FC_GAMMA            HAVE_FC_GETENV   HAVE_FC_IEEE_EXCEPTIONS

          HAVE_FC_INT_QUAD             HAVE_FC_IOMSG     HAVE_FC_ISO_C_BINDING

  HAVE_FC_ISO_FORTRAN_2008        HAVE_FC_LONG_LINES        HAVE_FC_MOVE_ALLOC

           HAVE_FC_PRIVATE         HAVE_FC_PROTECTED         HAVE_FC_STREAM_IO

            HAVE_FC_SYSTEM                  HAVE_FFT            HAVE_FFT_FFTW3

        HAVE_FFT_FFTW3_MPI    HAVE_FFT_FFTW3_THREADS              HAVE_FFT_MPI

           HAVE_FFT_SERIAL          HAVE_FORTRAN2003        HAVE_LIBPAW_ABINIT

         HAVE_LINALG_AXPBY        HAVE_LINALG_GEMM3M           HAVE_LINALG_MPI

        HAVE_LINALG_SERIAL                  HAVE_MPI                 HAVE_MPI2

         HAVE_MPI2_INPLACE       HAVE_MPI_IALLREDUCE        HAVE_MPI_IALLTOALL

       HAVE_MPI_IALLTOALLV        HAVE_MPI_INTEGER16               HAVE_MPI_IO

 HAVE_MPI_TYPE_CREATE_S...             HAVE_OS_LINUX         HAVE_TIMER_ABINIT

              USE_MACROAVE

- input  file    -> ab.in
- output file    -> ab.out
- root for input  files -> abi
- root for output files -> abo

-instrng: 115 lines of input have been read from file ab.in

 Please give name of formatted atomic psp file
 iofn2 : for atom type 1, psp file is w.paw.xml

 Please give name of formatted atomic psp file
 iofn2 : for atom type 2, psp file is s.paw.xml
- inpspheads : Reading pseudopotential header in XML form from w.paw.xml
- inpspheads : Reading pseudopotential header in XML form from s.paw.xml

 inpspheads: deduce mpsang = 3, n1xccc = 1.
 invars1 : treat image number: 1

 symlatt : the Bravais lattice is hP (primitive hexagonal)
  xred   is defined in input file
 ingeo: takes atomic coordinates from input array xred

 symlatt : the Bravais lattice is hP (primitive hexagonal)

 symlatt : the Bravais lattice is hP (primitive hexagonal)

--- !COMMENT
src_file: m_symfind.F90
src_line: 815
message: |
    The Bravais lattice determined only from the primitive
    vectors, bravais(1)=  6, is more symmetric
    than the real one, iholohedry=  1, obtained by taking into
    account the atomic positions. Start deforming the primitive vector set.
...

 symlatt : the Bravais lattice is oC (one-face-centered orthorhombic)

--- !COMMENT
src_file: m_symfind.F90
src_line: 824
message: |
    The Bravais lattice determined from modified primitive
    vectors, bravais(1)=  3, has a lower symmetry than before,
    but is still more symmetric than the real one, iholohedry=  1
    obtained by taking into account the atomic positions.
...

 symlatt : the Bravais lattice is aP (primitive triclinic)
 symspgr : spgroup=   1  P1   (=C1^1)
 ingeo: angdeg(1:3)=   90.00000000   90.00000000  120.00000000
 invars2: read the value of fband=  0.00000000E+00 from input file.
 chkneu : initialized the occupation numbers for occopt=    1, spin-unpolarized or antiferromagnetic case :
  2.00  2.00  2.00  2.00  2.00  2.00  2.00  2.00  2.00  2.00  2.00  2.00
  2.00  2.00  2.00  2.00  2.00  2.00  2.00  2.00  2.00  2.00  2.00  2.00
  2.00  2.00  2.00  2.00  2.00  2.00  2.00  2.00  2.00  2.00  2.00  2.00
  2.00  2.00  2.00  2.00  2.00  2.00  2.00  2.00  2.00  2.00  2.00  2.00
  2.00  2.00  2.00  2.00  2.00  2.00  2.00  2.00  2.00  2.00  2.00  2.00
  2.00  2.00  2.00  2.00  2.00  2.00  2.00  2.00  2.00  2.00  2.00  2.00
  2.00  2.00  2.00  2.00  2.00  2.00  2.00  2.00  2.00  2.00  2.00  2.00
  2.00  2.00  2.00  2.00  2.00  2.00  2.00  2.00  2.00  2.00  2.00  2.00
  2.00  2.00  2.00  2.00  2.00  2.00  2.00  2.00
npfft, npband, npspinor and npkpt:     1    1    1   13
mpi_setup: mkmem  undefined in the input file.Use default mkmem  = nkpt
 mpi_setup: With nkpt_me=1 and mkmem  = 13, ground state wf handled in core.
mpi_setup: mkqmem undefined in the input file.Use default mkqmem = nkpt
 mpi_setup: With nkpt_me=1 and mkqmem = 13, ground state wf handled in core.
mpi_setup: mk1mem undefined in the input file.Use default mk1mem = nkpt
 mpi_setup: With nkpt_me=1 and mk1mem = 13, ground state wf handled in core.
getng is called for the coarse grid:
 For input ecut=  1.837466E+01 best grid ngfft=      48      48     300
       max ecut=  1.932595E+01

 ==== FFT mesh ====
  FFT mesh divisions ........................    48   48  300
  Augmented FFT divisions ...................    49   49  300
  FFT algorithm .............................   312
  FFT cache size ............................ 32384
 getmpw: optimal value of mpw= 35312
getng is called for the fine grid:
 Using supplied coarse mesh as initial guess.
 For input ecut=  2.572453E+01 best grid ngfft=      60      60     360
       max ecut=  2.782937E+01

 ==== FFT mesh ====
  FFT mesh divisions ........................    60   60  360
  Augmented FFT divisions ...................    61   61  360
  FFT algorithm .............................   312
  FFT cache size ............................ 32384

 DATASET    4 : space group P1 (#  1); Bravais aP (primitive triclinic)

 getdim_nloc : deduce lmnmax  =  18, lnmax  =   6,
                      lmnmaxso=  18, lnmaxso=   6.
     intxc =       0    ionmov =       0      iscf =      17    lmnmax =      18
     lnmax =       6     mgfft =     300  mpssoang =       3    mqgrid =   17306
     natom =      24  nloc_mem =       2    nspden =       1   nspinor =       1
    nsppol =       1      nsym =       1    n1xccc =       1    ntypat =       2
    occopt =       1   xclevel =       2
-    mband =         104        mffmem =           1         mkmem =           1
       mpw =       35312          nfft =      691200          nkpt =          13
Pmy_natom=         2
 PAW method is used; the additional fine FFT grid is defined by:
   mgfftf=       360    nfftf =   1296000
  Rough estimation (10% accuracy) of disk space for files :

 The job will continue.
------------- Echo of variables that govern the present computation ------------
-
- outvars: echo of selected default values
-   iomode0 =  0 , fftalg0 =312 , wfoptalg0 = 10
-
- outvars: echo of global parameters not present in the input file
-  max_nthreads =    0
-
 -outvars: echo values of preprocessed input variables --------
            acell      1.0000000000E+00  1.0000000000E+00  1.0000000000E+00 Bohr
              amu      1.83850000E+02  3.20660000E+01
         berryopt           4
             ecut      1.83746627E+01 Hartree
           ecutsm      5.00000000E-01 Hartree
           efield      0.00000000E+00  0.00000000E+00  5.00000000E-04
-          fftalg         312
         fftcache       32384
           irdden           1
           irdwfk           1
           istwfk        0    0    0    0    0    0    0    0    0    0
                         0    0    1
              ixc          11
           jdtset        4
              kpt      1.00000000E-01  1.00000000E-01  5.00000000E-01
                       3.00000000E-01  1.00000000E-01  5.00000000E-01
                       5.00000000E-01  1.00000000E-01  5.00000000E-01
                      -3.00000000E-01  1.00000000E-01  5.00000000E-01
                      -1.00000000E-01  1.00000000E-01  5.00000000E-01
                       1.00000000E-01  3.00000000E-01  5.00000000E-01
                       3.00000000E-01  3.00000000E-01  5.00000000E-01
                       5.00000000E-01  3.00000000E-01  5.00000000E-01
                      -3.00000000E-01  3.00000000E-01  5.00000000E-01
                      -1.00000000E-01  3.00000000E-01  5.00000000E-01
                       1.00000000E-01  5.00000000E-01  5.00000000E-01
                       3.00000000E-01  5.00000000E-01  5.00000000E-01
                       5.00000000E-01  5.00000000E-01  5.00000000E-01
         kptrlatt        5    0    0      0    5    0      0    0    1
          kptrlen      5.97234168E+01
P           mkmem           1
            natom          24
            nband         104
           ndtset           1
            ngfft          48      48     300
          ngfftdg          60      60     360
             nkpt          13
         npulayit           9
            nstep        1000
             nsym           1
           ntypat           2
              occ      2.000000  2.000000  2.000000  2.000000  2.000000  2.000000
                       2.000000  2.000000  2.000000  2.000000  2.000000  2.000000
                       2.000000  2.000000  2.000000  2.000000  2.000000  2.000000
                       2.000000  2.000000  2.000000  2.000000  2.000000  2.000000
                       2.000000  2.000000  2.000000  2.000000  2.000000  2.000000
                       2.000000  2.000000  2.000000  2.000000  2.000000  2.000000
                       2.000000  2.000000  2.000000  2.000000  2.000000  2.000000
                       2.000000  2.000000  2.000000  2.000000  2.000000  2.000000
                       2.000000  2.000000  2.000000  2.000000  2.000000  2.000000
                       2.000000  2.000000  2.000000  2.000000  2.000000  2.000000
                       2.000000  2.000000  2.000000  2.000000  2.000000  2.000000
                       2.000000  2.000000  2.000000  2.000000  2.000000  2.000000
                       2.000000  2.000000  2.000000  2.000000  2.000000  2.000000
                       2.000000  2.000000  2.000000  2.000000  2.000000  2.000000
                       2.000000  2.000000  2.000000  2.000000  2.000000  2.000000
                       2.000000  2.000000  2.000000  2.000000  2.000000  2.000000
                       2.000000  2.000000  2.000000  2.000000  2.000000  2.000000
                       2.000000  2.000000
        pawecutdg      2.57245278E+01 Hartree
            rprim      1.1944683354E+01  0.0000000000E+00  0.0000000000E+00
                      -5.9723416772E+00  1.0344399225E+01  0.0000000000E+00
[...]
  -0.10475   -0.10166   -0.09486   -0.09467   -0.09364   -0.09272   -0.08230   -0.07896
 kpt#  12, nband=104, wtk=  0.08000, kpt=  0.3000  0.5000  0.5000 (reduced coord)
  -2.78668   -2.78664   -2.78649   -2.78645   -2.78639   -2.78637   -2.78620   -2.78617
  -1.47754   -1.47747   -1.47635   -1.47628   -1.47547   -1.47539   -1.47376   -1.47369
  -1.47222   -1.47217   -1.47188   -1.47180   -1.47150   -1.47145   -1.47123   -1.47118
  -1.47051   -1.47046   -1.47023   -1.47016   -1.46933   -1.46926   -1.46818   -1.46811
  -0.58722   -0.58248   -0.56368   -0.55935   -0.55379   -0.54976   -0.54511   -0.53829
  -0.53561   -0.53152   -0.53052   -0.52722   -0.52306   -0.52153   -0.51833   -0.51758
  -0.28397   -0.27952   -0.27703   -0.27650   -0.27575   -0.27542   -0.27464   -0.27100
  -0.26652   -0.26393   -0.24272   -0.24161   -0.23646   -0.23203   -0.23171   -0.22839
  -0.22635   -0.22432   -0.22417   -0.22289   -0.22270   -0.22007   -0.20588   -0.20270
  -0.20237   -0.20146   -0.19277   -0.19121   -0.19055   -0.18740   -0.18574   -0.18405
  -0.17251   -0.16870   -0.15841   -0.15664   -0.15443   -0.14816   -0.14744   -0.14714
  -0.14439   -0.14324   -0.12896   -0.12835   -0.12583   -0.12318   -0.11854   -0.10865
  -0.10270   -0.10092   -0.09861   -0.09785   -0.09138   -0.08889   -0.07637   -0.07202
 kpt#  13, nband=104, wtk=  0.04000, kpt=  0.5000  0.5000  0.5000 (reduced coord)
  -2.78664   -2.78659   -2.78658   -2.78658   -2.78628   -2.78625   -2.78624   -2.78624
  -1.47740   -1.47738   -1.47732   -1.47732   -1.47339   -1.47334   -1.47330   -1.47330
  -1.47234   -1.47229   -1.47225   -1.47225   -1.47200   -1.47196   -1.47192   -1.47192
  -1.47077   -1.47073   -1.47070   -1.47070   -1.46829   -1.46828   -1.46822   -1.46822
  -0.57973   -0.57957   -0.57509   -0.57493   -0.54210   -0.54208   -0.53587   -0.53577
  -0.53455   -0.53436   -0.53153   -0.53138   -0.52335   -0.52331   -0.52093   -0.52082
  -0.27994   -0.27994   -0.27971   -0.27965   -0.27700   -0.27691   -0.26291   -0.26283
  -0.26283   -0.26272   -0.26030   -0.26026   -0.23519   -0.23492   -0.22947   -0.22927
  -0.22398   -0.22394   -0.21981   -0.21971   -0.21519   -0.21511   -0.20391   -0.20380
  -0.20335   -0.20332   -0.19233   -0.19233   -0.19118   -0.19116   -0.18476   -0.18460
  -0.16490   -0.16467   -0.16320   -0.16305   -0.14189   -0.14183   -0.13900   -0.13873
  -0.13746   -0.13725   -0.13549   -0.13548   -0.13523   -0.13497   -0.12150   -0.12145
  -0.10091   -0.10081   -0.09808   -0.09797   -0.08939   -0.08934   -0.08739   -0.08732
 Total charge density [el/Bohr^3]
      Maximum=    1.5296E+00  at reduced coord.    0.8333    0.1667    0.0750
 Next maximum=    1.5296E+00  at reduced coord.    0.3333    0.6667    0.0750
      Minimum=   -6.7898E-02  at reduced coord.    0.1667    0.3333    0.0389
 Next minimum=   -6.7027E-02  at reduced coord.    0.1667    0.8333    0.0361
   Integrated=    2.0800E+02

Constant unreduced E calculation  - final values:
 (a. u.)
       E:   0.000000000E+00   0.000000000E+00   5.000000000E-04
       P:   8.164853439E-08   5.102994651E-09   8.216424698E-08

    ebar:   0.000000000E+00   0.000000000E+00   3.789882395E-02
    pbar:   1.225555262E-05  -5.464430101E-06   7.826155496E-05

       e:   0.000000000E+00   0.000000000E+00   4.916319000E-03
       p:   6.632914698E-05   4.620143700E-06   1.015226146E-05

 (S.I.), that is V/m for E, and C/m^2 for P
-      E:   0.000000000E+00   0.000000000E+00   2.571103160E+08
       P:   4.671501420E-06   2.919666218E-07   4.701007793E-06

 Please check: COMMENT -
  As a rough estimate,
  to be below the critical field, the bandgap of your system
  should be larger than    1.03 eV.

 Cartesian components of stress tensor (hartree/bohr^3)
  sigma(1 1)= -1.19193253E-06  sigma(3 2)=  1.96483539E-10
  sigma(2 2)= -1.19016843E-06  sigma(3 1)= -1.01943838E-07
  sigma(3 3)= -2.07222885E-06  sigma(2 1)=  2.74414811E-08

-Cartesian components of stress tensor (GPa)         [Pressure=  4.3684E-02 GPa]
- sigma(1 1)= -3.50678599E-02  sigma(3 2)=  5.78074434E-06
- sigma(2 2)= -3.50159584E-02  sigma(3 1)= -2.99929076E-03
- sigma(3 3)= -6.09670674E-02  sigma(2 1)=  8.07356112E-04

== END DATASET(S) ==============================================================

 -outvars: echo values of variables after computation  --------
            acell      1.0000000000E+00  1.0000000000E+00  1.0000000000E+00 Bohr
              amu      1.83850000E+02  3.20660000E+01
         berryopt           4
             ecut      1.83746627E+01 Hartree
           ecutsm      5.00000000E-01 Hartree
           efield      0.00000000E+00  0.00000000E+00  5.00000000E-04
           etotal4    -7.1847021737E+02
            fcart4     1.7205686631E-06 -2.2359115053E-08  3.4446319337E-03
                       6.1610576992E-07 -1.4227712331E-06  3.4634056083E-03
                       2.1912658636E-06  8.9866365663E-07  3.4626554773E-03
                      -2.3928177046E-07  4.6581674244E-07  3.4641563297E-03
                       8.6851874233E-04 -4.7406685811E-04  4.4094179854E-03
                      -5.5447696669E-04 -3.4748410891E-04  4.1896237091E-03
                       4.7395607755E-05  8.2116285650E-04  4.2991112191E-03
                      -6.9309153100E-06  3.5646512439E-08  3.4045201391E-03
                      -4.2905991764E-04  4.5716360531E-07 -5.1189807821E-03
                       5.4528574552E-05  1.1633444767E-05 -1.8781485316E-03
                      -1.1150146702E-06 -3.2117894860E-05 -1.8798380816E-03
                       1.9099339961E-05  2.0465419736E-05 -1.8764348208E-03
                      -2.3012193325E-05  1.3392042169E-05 -1.6028797321E-03
                       2.7295276323E-05  1.5659680278E-05 -1.5950650326E-03
                       1.7743794853E-07 -2.9037260284E-05 -1.5989687025E-03
                       1.1511039585E-07  4.7614396872E-09 -1.6341647280E-03
                       7.4656736502E-07 -1.2940070286E-07 -1.7638400500E-03
                       3.1159840449E-07 -7.5904544505E-08 -1.7637512506E-03
                       4.8258207629E-07  2.7138504098E-07 -1.7637955910E-03
                       4.9451917413E-07  2.3154949337E-08 -1.7661157429E-03
                      -7.4649489732E-06 -2.1389549848E-08 -1.1791793956E-03
                       1.1382948788E-05  6.5494609401E-05 -1.5721244115E-03
                      -6.3153840957E-05 -4.3053587424E-05 -1.5627362496E-03
                       5.0376833964E-05 -2.2533110070E-05 -1.5814992991E-03
-          fftalg         312
         fftcache       32384
           irdden           1
           irdwfk           1
           istwfk        0    0    0    0    0    0    0    0    0    0
                         0    0    1
              ixc          11
           jdtset        4
              kpt      1.00000000E-01  1.00000000E-01  5.00000000E-01
                       3.00000000E-01  1.00000000E-01  5.00000000E-01
                       5.00000000E-01  1.00000000E-01  5.00000000E-01
                      -3.00000000E-01  1.00000000E-01  5.00000000E-01
                      -1.00000000E-01  1.00000000E-01  5.00000000E-01
                       1.00000000E-01  3.00000000E-01  5.00000000E-01
                       3.00000000E-01  3.00000000E-01  5.00000000E-01
                       5.00000000E-01  3.00000000E-01  5.00000000E-01
                      -3.00000000E-01  3.00000000E-01  5.00000000E-01
                      -1.00000000E-01  3.00000000E-01  5.00000000E-01
                       1.00000000E-01  5.00000000E-01  5.00000000E-01
                       3.00000000E-01  5.00000000E-01  5.00000000E-01
                       5.00000000E-01  5.00000000E-01  5.00000000E-01
         kptrlatt        5    0    0      0    5    0      0    0    1
          kptrlen      5.97234168E+01
P           mkmem           1
            natom          24
            nband         104
           ndtset           1
            ngfft          48      48     300
          ngfftdg          60      60     360
             nkpt          13
         npulayit           9
            nstep        1000
             nsym           1
           ntypat           2
              occ      2.000000  2.000000  2.000000  2.000000  2.000000  2.000000
                       2.000000  2.000000  2.000000  2.000000  2.000000  2.000000
                       2.000000  2.000000  2.000000  2.000000  2.000000  2.000000
                       2.000000  2.000000  2.000000  2.000000  2.000000  2.000000
                       2.000000  2.000000  2.000000  2.000000  2.000000  2.000000
                       2.000000  2.000000  2.000000  2.000000  2.000000  2.000000
                       2.000000  2.000000  2.000000  2.000000  2.000000  2.000000
                       2.000000  2.000000  2.000000  2.000000  2.000000  2.000000
                       2.000000  2.000000  2.000000  2.000000  2.000000  2.000000
                       2.000000  2.000000  2.000000  2.000000  2.000000  2.000000
                       2.000000  2.000000  2.000000  2.000000  2.000000  2.000000
                       2.000000  2.000000  2.000000  2.000000  2.000000  2.000000
                       2.000000  2.000000  2.000000  2.000000  2.000000  2.000000
                       2.000000  2.000000  2.000000  2.000000  2.000000  2.000000
                       2.000000  2.000000  2.000000  2.000000  2.000000  2.000000
                       2.000000  2.000000  2.000000  2.000000  2.000000  2.000000
                       2.000000  2.000000  2.000000  2.000000  2.000000  2.000000
                       2.000000  2.000000
        pawecutdg      2.57245278E+01 Hartree
            rprim      1.1944683354E+01  0.0000000000E+00  0.0000000000E+00
                      -5.9723416772E+00  1.0344399225E+01  0.0000000000E+00
                       0.0000000000E+00  0.0000000000E+00  7.5797647904E+01
           shiftk      5.00000000E-01  5.00000000E-01  5.00000000E-01
          spgroup           1
           strten4    -1.1919325303E-06 -1.1901684344E-06 -2.0722288513E-06
                       1.9648353943E-10 -1.0194383806E-07  2.7441481110E-08
        symmorphi           0
           toldfe      1.00000000E-10 Hartree
            typat      1  1  1  1  1  1  1  1  2  2  2  2  2  2  2  2  2  2  2  2
                       2  2  2  2
           useylm           1
      vdw_tol_3bt      1.00000000E-10
           vdw_xc           7
         wfoptalg         114
              wtk        0.08000    0.08000    0.08000    0.08000    0.08000    0.08000
                         0.08000    0.08000    0.08000    0.08000    0.08000    0.08000
                         0.04000
           xangst     -1.5802114483E-11  1.8246734355E+00  3.7048044602E+01
                       3.1604270975E+00  1.8246734355E+00  3.7048044602E+01
                      -1.5802135488E+00  4.5616835887E+00  3.7048044602E+01
                       1.5802135487E+00  4.5616835887E+00  3.7048044602E+01
                       1.5802135488E+00  9.1233671773E-01  3.0623431334E+00
                       4.7406406462E+00  9.1233671773E-01  3.0623431334E+00
                       1.5801996982E-11  3.6493468709E+00  3.0623431334E+00
                       3.1604270975E+00  3.6493468709E+00  3.0623431334E+00
                       1.6474922469E-03  1.8246734355E+00  1.4974307728E+00
                       3.1604270975E+00  1.8246734355E+00  1.4869762438E+00
                      -1.5802135488E+00  4.5616835887E+00  1.4869762438E+00
                       1.5802135487E+00  4.5616835887E+00  1.4869762438E+00
                       1.5802135488E+00  9.1233671773E-01  3.8623411492E+01
                       4.7406406462E+00  9.1233671773E-01  3.8623411492E+01
                       1.5801996982E-11  3.6493468709E+00  3.8623411492E+01
                       3.1604270975E+00  3.6493468709E+00  3.8623411492E+01
                       1.5802135488E+00  9.1233671773E-01  3.5471076390E+01
                       4.7406406462E+00  9.1233671773E-01  3.5471076390E+01
                       1.5801996982E-11  3.6493468709E+00  3.5471076390E+01
                       3.1604270975E+00  3.6493468709E+00  3.5471076390E+01
                      -1.5802114483E-11  1.8246734355E+00  4.6393113459E+00
                       3.1604270975E+00  1.8246734355E+00  4.6393113459E+00
                      -1.5802135488E+00  4.5616835887E+00  4.6393113459E+00
                       1.5802135487E+00  4.5616835887E+00  4.6393113459E+00
            xcart     -2.9861668693E-11  3.4481330750E+00  7.0010658057E+01
                       5.9723416772E+00  3.4481330750E+00  7.0010658057E+01
                      -2.9861708386E+00  8.6203326875E+00  7.0010658057E+01
                       2.9861708386E+00  8.6203326875E+00  7.0010658057E+01
                       2.9861708386E+00  1.7240665375E+00  5.7869898471E+00
                       8.9585125158E+00  1.7240665375E+00  5.7869898471E+00
                       2.9861446649E-11  6.8962661500E+00  5.7869898471E+00
                       5.9723416772E+00  6.8962661500E+00  5.7869898471E+00
                       3.1133091526E-03  3.4481330750E+00  2.8297340636E+00
                       5.9723416772E+00  3.4481330750E+00  2.8099778670E+00
                      -2.9861708386E+00  8.6203326875E+00  2.8099778670E+00
                       2.9861708386E+00  8.6203326875E+00  2.8099778670E+00
                       2.9861708386E+00  1.7240665375E+00  7.2987670037E+01
                       8.9585125158E+00  1.7240665375E+00  7.2987670037E+01
                       2.9861446649E-11  6.8962661500E+00  7.2987670037E+01
                       5.9723416772E+00  6.8962661500E+00  7.2987670037E+01
                       2.9861708386E+00  1.7240665375E+00  6.7030620015E+01
                       8.9585125158E+00  1.7240665375E+00  6.7030620015E+01
                       2.9861446649E-11  6.8962661500E+00  6.7030620015E+01
                       5.9723416772E+00  6.8962661500E+00  6.7030620015E+01
                      -2.9861668693E-11  3.4481330750E+00  8.7670278890E+00
                       5.9723416772E+00  3.4481330750E+00  8.7670278890E+00
                      -2.9861708386E+00  8.6203326875E+00  8.7670278890E+00
                       2.9861708386E+00  8.6203326875E+00  8.7670278890E+00
             xred      1.6666666666E-01  3.3333333333E-01  9.2365211841E-01
                       6.6666666666E-01  3.3333333333E-01  9.2365211841E-01
                       1.6666666667E-01  8.3333333333E-01  9.2365211841E-01
                       6.6666666666E-01  8.3333333333E-01  9.2365211841E-01
                       3.3333333333E-01  1.6666666666E-01  7.6347881592E-02
                       8.3333333333E-01  1.6666666666E-01  7.6347881592E-02
                       3.3333333333E-01  6.6666666666E-01  7.6347881592E-02
                       8.3333333333E-01  6.6666666666E-01  7.6347881592E-02
                       1.6692731059E-01  3.3333333333E-01  3.7332742399E-02
                       6.6666666666E-01  3.3333333333E-01  3.7072098471E-02
                       1.6666666667E-01  8.3333333333E-01  3.7072098471E-02
                       6.6666666666E-01  8.3333333333E-01  3.7072098471E-02
                       3.3333333333E-01  1.6666666666E-01  9.6292790153E-01
                       8.3333333333E-01  1.6666666666E-01  9.6292790153E-01
                       3.3333333333E-01  6.6666666666E-01  9.6292790153E-01
                       8.3333333333E-01  6.6666666666E-01  9.6292790153E-01
                       3.3333333333E-01  1.6666666666E-01  8.8433641239E-01
                       8.3333333333E-01  1.6666666666E-01  8.8433641239E-01
                       3.3333333333E-01  6.6666666666E-01  8.8433641239E-01
                       8.3333333333E-01  6.6666666666E-01  8.8433641239E-01
                       1.6666666666E-01  3.3333333333E-01  1.1566358761E-01
                       6.6666666666E-01  3.3333333333E-01  1.1566358761E-01
                       1.6666666667E-01  8.3333333333E-01  1.1566358761E-01
                       6.6666666666E-01  8.3333333333E-01  1.1566358761E-01
            znucl       74.00000   16.00000

 Suggested references for the acknowledgment of ABINIT usage.

 Calculation completed.
.Delivered   0 WARNINGs and   2 COMMENTs to log file.

--- !FinalSummary
program: abinit
version: 8.10.2
start_datetime: Mon Apr 08 22:44:35 2019
end_datetime: Mon Apr 08 23:31:39 2019
overall_cpu_time:       36569.2
overall_wall_time:       36713.3
exit_requested_by_user: no
timelimit: 0
pseudos:
    W   : b505bc5c1b0279f4ba08993ba4bfc499
    S   : c21f1ace4b7e9c1b3b557902b59d8542
usepaw: 1
mpi_procs: 13
omp_threads: 1
num_warnings: 0
num_comments: 2
...