.Version 8.10.3 of ABINIT
.(sequential version, prepared for a x86_64_cygwin_gnu7.4 computer)

 ABINIT is a project of the Universite Catholique de Louvain,
 Corning Inc. and other collaborators, see ~abinit/doc/developers/contributors.txt .
 acknowledgments of the ABINIT effort.

.Starting date : Thu  1 Aug 2019.
- ( at 15h17 )

 === Build Information ===
  Version       : 8.10.3
  Build target  : x86_64_cygwin_gnu7.4
  Build date    : 20190801

 === Optimizations ===
  Debug level        : basic
  Optimization level : standard
  Architecture       : _

 === Multicore ===
  Parallel build : no
  Parallel I/O   : no
  openMP support : no
  GPU support    : no

 === Connectors / Fallbacks ===
  Connectors on : yes
  Fallbacks on  : yes
  DFT flavor    : none
  FFT flavor    : none
  LINALG flavor : netlib-fallback
  MATH flavor   : none
  TIMER flavor  : abinit
  TRIO flavor   : none

 === Experimental features ===
  Bindings            : @enable_bindings@
  Exports             : no
  GW double-precision : no

 Default optimizations:
   -O2 -mtune=native -march=native

 Optimizations for 43_ptgroups:
   -O0

 CPP options activated during the build:

                    CC_GNU                   CXX_GNU                    FC_GNU

 HAVE_FC_ALLOCATABLE_DT...             HAVE_FC_ASYNC         HAVE_FC_BACKTRACE

  HAVE_FC_COMMAND_ARGUMENT      HAVE_FC_COMMAND_LINE        HAVE_FC_CONTIGUOUS

           HAVE_FC_CPUTIME              HAVE_FC_EXIT             HAVE_FC_FLUSH

             HAVE_FC_GAMMA            HAVE_FC_GETENV   HAVE_FC_IEEE_EXCEPTIONS

          HAVE_FC_INT_QUAD             HAVE_FC_IOMSG     HAVE_FC_ISO_C_BINDING

  HAVE_FC_ISO_FORTRAN_2008        HAVE_FC_LONG_LINES        HAVE_FC_MOVE_ALLOC

           HAVE_FC_PRIVATE         HAVE_FC_PROTECTED         HAVE_FC_STREAM_IO

            HAVE_FC_SYSTEM          HAVE_FORTRAN2003        HAVE_LIBPAW_ABINIT

      HAVE_LIBTETRA_ABINIT           HAVE_OS_WINDOWS         HAVE_TIMER_ABINIT

              USE_MACROAVE

- input  file    -> t56.in
- output file    -> t56.out
- root for input  files -> t56i
- root for output files -> t56o

-instrng: 33 lines of input have been read from file t56.in

 Please give name of formatted atomic psp file
 iofn2 : for atom type 1, psp file is 22-Ti.GGA.fhi

 Please give name of formatted atomic psp file
 iofn2 : for atom type 2, psp file is 07-N.GGA.fhi
  read the values zionpsp=  4.0 , pspcod=   6 , lmax=   3
  read the values zionpsp=  5.0 , pspcod=   6 , lmax=   3

 inpspheads: deduce mpsang = 4, n1xccc = 0.
 invars1 : treat image number: 1

 symlatt : the Bravais lattice is hP (primitive hexagonal)
  xred   is defined in input file
 ingeo: takes atomic coordinates from input array xred

 symlatt : the Bravais lattice is hP (primitive hexagonal)

 symlatt : the Bravais lattice is hP (primitive hexagonal)

--- !COMMENT
src_file: m_symfind.F90
src_line: 815
message: |
    The Bravais lattice determined only from the primitive
    vectors, bravais(1)=  6, is more symmetric
    than the real one, iholohedry=  1, obtained by taking into
    account the atomic positions. Start deforming the primitive vector set.
...

 symlatt : the Bravais lattice is oC (one-face-centered orthorhombic)

--- !COMMENT
src_file: m_symfind.F90
src_line: 824
message: |
    The Bravais lattice determined from modified primitive
    vectors, bravais(1)=  3, has a lower symmetry than before,
    but is still more symmetric than the real one, iholohedry=  1
    obtained by taking into account the atomic positions.
...

 symlatt : the Bravais lattice is aP (primitive triclinic)
 symspgr : spgroup=   1  P1   (=C1^1)
 ingeo: angdeg(1:3)=   90.00000000   90.00000000  120.00000000
 invars2: take the default value of fband=  5.00000000E-01
 chkneu : initialized the occupation numbers for occopt=    4, spin-unpolarized or antiferromagnetic case :
  2.00  2.00  2.00  2.00  2.00  2.00  2.00  2.00  2.00  2.00  2.00  2.00
  2.00  1.00  0.00  0.00  0.00
mpi_setup: mkmem  undefined in the input file.Use default mkmem  = nkpt
 mpi_setup: With nkpt_me=8 and mkmem  = 8, ground state wf handled in core.
mpi_setup: mkqmem undefined in the input file.Use default mkqmem = nkpt
 mpi_setup: With nkpt_me=8 and mkqmem = 8, ground state wf handled in core.
mpi_setup: mk1mem undefined in the input file.Use default mk1mem = nkpt
 mpi_setup: With nkpt_me=8 and mk1mem = 8, ground state wf handled in core.
 For input ecut=  3.000000E+01 best grid ngfft=      30      30     288
       max ecut=  3.123431E+01

 ==== FFT mesh ====
  FFT mesh divisions ........................    30   30  288
  Augmented FFT divisions ...................    31   31  288
  FFT algorithm .............................   112
  FFT cache size ............................    16
 getmpw: optimal value of mpw= 13050

 Symmetries : space group P1 (#  1); Bravais aP (primitive triclinic)

 getdim_nloc : deduce lmnmax  =  16, lnmax  =   4,
                      lmnmaxso=  16, lnmaxso=   4.
 For input ecut=  9.668510E+00 best grid ngfft=      18      18     162
       max ecut=  9.882731E+00

 ==== FFT mesh ====
  FFT mesh divisions ........................    18   18  162
  Augmented FFT divisions ...................    19   19  162
  FFT algorithm .............................   101
  FFT cache size ............................    16
 getmpw: optimal value of mpw= 225
     intxc =       0    ionmov =       0      iscf =       7    lmnmax =       4
     lnmax =       4     mgfft =     288  mpssoang =       4    mqgrid =    3822
     natom =       6  nloc_mem =       1    nspden =       1   nspinor =       1
    nsppol =       1      nsym =       1    n1xccc =       0    ntypat =       2
    occopt =       4   xclevel =       1
-    mband =          17        mffmem =           1         mkmem =           8
       mpw =       13050          nfft =      259200          nkpt =           8
 For the susceptibility and dielectric matrices, or tddft :
   mgfft =       162  nbnd_in_blk=     6    nfft =     52488     npw =       225
  Rough estimation (10% accuracy) of disk space for files :

 The job will continue.
------------- Echo of variables that govern the present computation ------------
-
- outvars: echo of selected default values
-   iomode0 =  0 , fftalg0 =112 , wfoptalg0 =  0
-
- outvars: echo of global parameters not present in the input file
-  max_nthreads =    0
-
 -outvars: echo values of preprocessed input variables --------
            acell      8.1768000000E+00  8.1768000000E+00  8.1768000000E+00 Bohr
              amu      4.78800000E+01  1.40067400E+01
             ecut      3.00000000E+01 Hartree
-          fftalg         112
           iprcel          45
              kpt      1.25000000E-01  1.25000000E-01  5.00000000E-01
                       3.75000000E-01  1.25000000E-01  5.00000000E-01
                      -3.75000000E-01  1.25000000E-01  5.00000000E-01
                      -1.25000000E-01  1.25000000E-01  5.00000000E-01
                       1.25000000E-01  3.75000000E-01  5.00000000E-01
                       3.75000000E-01  3.75000000E-01  5.00000000E-01
                      -3.75000000E-01  3.75000000E-01  5.00000000E-01
                      -1.25000000E-01  3.75000000E-01  5.00000000E-01
         kptrlatt        4    0    0      0    4    0      0    0    1
          kptrlen      2.31274829E+01
P           mkmem           8
            natom           6
            nband          17
            ngfft          30      30     288
             nkpt           8
            nstep          80
             nsym           1
           ntypat           2
              occ      2.000000  2.000000  2.000000  2.000000  2.000000  2.000000
                       2.000000  2.000000  2.000000  2.000000  2.000000  2.000000
                       2.000000  1.000000  0.000000  0.000000  0.000000
                       2.000000  2.000000  2.000000  2.000000  2.000000  2.000000
                       2.000000  2.000000  2.000000  2.000000  2.000000  2.000000
                       2.000000  1.000000  0.000000  0.000000  0.000000
                       2.000000  2.000000  2.000000  2.000000  2.000000  2.000000
                       2.000000  2.000000  2.000000  2.000000  2.000000  2.000000
                       2.000000  1.000000  0.000000  0.000000  0.000000
                       2.000000  2.000000  2.000000  2.000000  2.000000  2.000000
                       2.000000  2.000000  2.000000  2.000000  2.000000  2.000000
                       2.000000  1.000000  0.000000  0.000000  0.000000
                       2.000000  2.000000  2.000000  2.000000  2.000000  2.000000
                       2.000000  2.000000  2.000000  2.000000  2.000000  2.000000
                       2.000000  1.000000  0.000000  0.000000  0.000000
                       2.000000  2.000000  2.000000  2.000000  2.000000  2.000000
                       2.000000  2.000000  2.000000  2.000000  2.000000  2.000000
                       2.000000  1.000000  0.000000  0.000000  0.000000
                       2.000000  2.000000  2.000000  2.000000  2.000000  2.000000
                       2.000000  2.000000  2.000000  2.000000  2.000000  2.000000
                       2.000000  1.000000  0.000000  0.000000  0.000000
                       2.000000  2.000000  2.000000  2.000000  2.000000  2.000000
                       2.000000  2.000000  2.000000  2.000000  2.000000  2.000000
                       2.000000  1.000000  0.000000  0.000000  0.000000
           occopt           4
           prtpot           1
            rprim      7.0710678120E-01  0.0000000000E+00  0.0000000000E+00
                      -3.5355339060E-01  6.1237243570E-01  0.0000000000E+00
                       0.0000000000E+00  0.0000000000E+00  7.0000000000E+00
           shiftk      5.00000000E-01  5.00000000E-01  5.00000000E-01
          spgroup           1
           toldfe      1.00000000E-06 Hartree
           tsmear      4.00000000E-02 Hartree
            typat      2  1  2  1  2  1
              wtk        0.12500    0.12500    0.12500    0.12500    0.12500    0.12500
                         0.12500    0.12500
           xangst      0.0000000000E+00  0.0000000000E+00  0.0000000000E+00
                       7.6947144071E-01  5.4087202482E-01  1.2490904367E+00
                      -6.2454521841E-01  1.0817440499E+00  2.4981808734E+00
                       0.0000000000E+00  0.0000000000E+00  3.7472713101E+00
                       7.6947144071E-01  5.4087202482E-01  4.9963617451E+00
                      -6.2454521841E-01  1.0817440499E+00  2.9039742956E+01
            xcart      0.0000000000E+00  0.0000000000E+00  0.0000000000E+00
                       1.4540902900E+00  1.0220999998E+00  2.3604388406E+00
                      -1.1802194204E+00  2.0442000002E+00  4.7208776812E+00
                       0.0000000000E+00  0.0000000000E+00  7.0813165218E+00
                       1.4540902900E+00  1.0220999998E+00  9.4417553591E+00
                      -1.1802194204E+00  2.0442000002E+00  5.4877161156E+01
             xred      0.0000000000E+00  0.0000000000E+00  0.0000000000E+00
[...]
              after    2 non-SCF iterations with    4 CG line minimizations
 -7.5581E-01 -7.2689E-01 -6.0707E-01 -4.4657E-01 -4.0735E-01 -3.8563E-01
 -3.7028E-01 -3.3390E-01 -3.1805E-01 -2.8489E-01 -2.3835E-01 -2.2291E-01
 -2.1345E-01 -1.9944E-01 -1.7550E-01 -1.3063E-01 -1.2578E-01
 non-scf iterations; kpt #     8  , k= ( -0.12500  0.37500  0.50000  ), band residuals:
 res:  1.26E-11  3.04E-11  3.73E-11  1.74E-11  3.35E-11  4.17E-11  4.25E-11  6.48E-11
 res:  9.99E-11  1.07E-10  1.52E-10  4.91E-11  3.46E-10  7.11E-10  9.50E-09  2.71E-07
 res:  7.40E-06
 ene: -7.62E-01 -7.28E-01 -6.10E-01 -4.35E-01 -4.04E-01 -3.88E-01 -3.67E-01 -3.44E-01
 ene: -3.19E-01 -2.80E-01 -2.40E-01 -2.31E-01 -2.12E-01 -1.94E-01 -1.61E-01 -1.42E-01
 ene: -1.31E-01
     eigenvalues (hartree) for   17  bands
              after    2 non-SCF iterations with    4 CG line minimizations
 -7.6189E-01 -7.2767E-01 -6.0989E-01 -4.3518E-01 -4.0431E-01 -3.8778E-01
 -3.6679E-01 -3.4372E-01 -3.1878E-01 -2.8008E-01 -2.3959E-01 -2.3123E-01
 -2.1210E-01 -1.9369E-01 -1.6055E-01 -1.4171E-01 -1.3109E-01
 newocc: new Fermi energy is      -0.189429 , with nelect=     27.000000
  Number of bissection calls =  47
 newocc : computed new occ. numbers for occopt= 4 , spin-unpolarized case.
 2.000 2.000 2.000 2.000 2.000 2.000 2.000 2.000 2.000 2.071 2.142 1.993
 1.700 0.904 0.468 0.029 0.003
 2.000 2.000 2.000 2.000 2.000 2.000 2.000 2.000 2.000 2.044 2.119 1.671
 1.434 0.934 0.035 0.004 0.004
 2.000 2.000 2.000 2.000 2.000 2.000 2.000 2.000 2.000 2.034 2.085 1.789
 1.643 1.103 0.204 0.012 0.004
 2.000 2.000 2.000 2.000 2.000 2.000 2.000 2.000 2.003 2.086 2.113 2.132
 1.749 0.839 0.500 0.295 0.085
 2.000 2.000 2.000 2.000 2.000 2.000 2.000 2.000 2.000 2.014 2.136 1.907
 1.585 1.016 0.093 0.005 0.005
 2.000 2.000 2.000 2.000 2.000 2.000 2.000 2.000 2.000 2.009 2.112 1.662
 1.426 0.953 0.077 0.003 0.004
 2.000 2.000 2.000 2.000 2.000 2.000 2.000 2.000 2.000 2.009 2.142 2.030
 1.810 1.279 0.342 0.003 0.004
 2.000 2.000 2.000 2.000 2.000 2.000 2.000 2.000 2.000 2.015 2.141 2.122
 1.768 1.026 0.069 0.000 0.003
mkrho: echo density (plane-wave part only)
 Total charge density [el/Bohr^3]
      Maximum=    5.9764E-01  at reduced coord.    0.0667    0.0000    0.0069
      Minimum=    0.0000E+00  at reduced coord.    0.8000    0.1000    0.3333
   Integrated=    2.7000E+01
 Total charge density [el/Bohr^3]
      Maximum=    5.9764E-01  at reduced coord.    0.0667    0.0000    0.0069
      Minimum=    0.0000E+00  at reduced coord.    0.8000    0.1000    0.3333
   Integrated=    2.7000E+01
  rhotov : is_hybrid_ncpp= F
  rhotov : n3xccc=           0
 ETOT 18  -40.024021334381    -8.180E-07 2.203E-04 1.453E-03
 scprqt: <Vxc>= -1.3029991E-01 hartree

 At SCF step   18, etot is converged :
  for the second time, diff in etot=  8.180E-07 < toldfe=  1.000E-06

 Cartesian components of stress tensor (hartree/bohr^3)
  sigma(1 1)= -2.68685123E-04  sigma(3 2)= -5.57741264E-05
  sigma(2 2)= -2.27087629E-04  sigma(3 1)= -3.81711118E-04
  sigma(3 3)= -7.76114636E-04  sigma(2 1)= -3.82138453E-05

 fftdatar_write: About to write data to: t56o_DEN with iomode IO_MODE_FORTRAN
 fftdatar_write: About to write data to: t56o_POT with iomode IO_MODE_FORTRAN

 ----iterations are completed or convergence reached----

 Mean square residual over all n,k,spin=   22.281E-07; max=  22.026E-05
   0.1250  0.1250  0.5000    1  9.90387E-06 kpt; spin; max resid(k); each band:
  1.73E-11 3.82E-11 4.19E-11 2.95E-11 2.57E-11 3.03E-11 5.94E-11 5.12E-11
  1.00E-10 1.76E-10 1.20E-10 1.08E-09 1.51E-09 2.29E-09 1.11E-08 6.11E-07
  9.90E-06
   0.3750  0.1250  0.5000    1  2.20258E-04 kpt; spin; max resid(k); each band:
  7.06E-12 2.59E-11 2.49E-11 2.12E-11 3.79E-11 2.30E-11 3.74E-11 5.44E-11
  9.88E-11 9.40E-11 1.24E-10 3.66E-10 3.42E-10 1.44E-10 1.18E-08 6.71E-06
  2.20E-04
  -0.3750  0.1250  0.5000    1  2.34249E-05 kpt; spin; max resid(k); each band:
  9.95E-12 3.02E-11 3.12E-11 1.49E-11 3.10E-11 2.79E-11 6.50E-11 6.01E-11
  6.05E-11 9.07E-11 2.10E-10 2.11E-10 1.46E-10 3.16E-09 8.04E-09 7.04E-08
  2.34E-05
  -0.1250  0.1250  0.5000    1  3.89275E-07 kpt; spin; max resid(k); each band:
  2.12E-11 4.22E-11 5.01E-11 3.69E-11 3.12E-11 3.22E-11 5.87E-11 4.96E-11
  1.22E-10 1.40E-10 7.41E-11 5.63E-10 2.94E-09 2.04E-08 5.65E-08 3.68E-07
  3.89E-07
   0.1250  0.3750  0.5000    1  1.59062E-05 kpt; spin; max resid(k); each band:
  8.50E-12 2.39E-11 3.20E-11 1.92E-11 4.31E-11 4.09E-11 3.05E-11 7.02E-11
  9.10E-11 8.05E-11 1.59E-10 1.34E-10 3.04E-10 8.94E-11 3.92E-09 4.66E-07
  1.59E-05
   0.3750  0.3750  0.5000    1  7.93377E-06 kpt; spin; max resid(k); each band:
  5.53E-12 2.24E-11 3.08E-11 1.50E-11 2.30E-11 4.23E-11 5.37E-11 5.77E-11
  6.10E-11 5.19E-11 1.04E-10 1.45E-10 1.01E-10 1.02E-10 1.90E-09 4.92E-07
  7.93E-06
  -0.3750  0.3750  0.5000    1  7.42505E-06 kpt; spin; max resid(k); each band:
  9.67E-12 2.47E-11 3.66E-11 1.65E-11 3.47E-11 4.33E-11 4.55E-11 6.71E-11
  1.70E-10 1.18E-10 1.78E-10 1.75E-10 3.71E-10 5.78E-10 3.14E-09 1.25E-06
  7.43E-06
  -0.1250  0.3750  0.5000    1  7.40499E-06 kpt; spin; max resid(k); each band:
  1.26E-11 3.04E-11 3.73E-11 1.74E-11 3.35E-11 4.17E-11 4.25E-11 6.48E-11
  9.99E-11 1.07E-10 1.52E-10 4.91E-11 3.46E-10 7.11E-10 9.50E-09 2.71E-07
  7.40E-06

 outwf: write wavefunction to file t56o_WFK, with iomode -1
 prteigrs : about to open file t56o_EIG
 Fermi (or HOMO) energy (hartree) =  -0.18943   Average Vxc (hartree)=  -0.13030
 Eigenvalues (hartree) for nkpt=   8  k points:
 kpt#   1, nband= 17, wtk=  0.12500, kpt=  0.1250  0.1250  0.5000 (reduced coord)
  -0.77527   -0.73803   -0.62135   -0.42319   -0.40447   -0.37969   -0.35577   -0.34858
  -0.31853   -0.25932   -0.23831   -0.22088   -0.21005   -0.19090   -0.17965   -0.15506
  -0.14633
      occupation numbers for kpt#   1
   2.00000    2.00000    2.00000    2.00000    2.00000    2.00000    2.00000    2.00000
   2.00014    2.07141    2.14184    1.99312    1.69982    0.90399    0.46778    0.02881
   0.00298
 kpt#   2, nband= 17, wtk=  0.12500, kpt=  0.3750  0.1250  0.5000 (reduced coord)
  -0.74963   -0.71910   -0.60539   -0.45174   -0.40910   -0.40062   -0.38111   -0.35807
  -0.34890   -0.26698   -0.23090   -0.20922   -0.20308   -0.19160   -0.15616   -0.12740
  -0.10891
      occupation numbers for kpt#   2
   2.00000    2.00000    2.00000    2.00000    2.00000    2.00000    2.00000    2.00000
   2.00000    2.04352    2.11943    1.67081    1.43368    0.93427    0.03505    0.00398
   0.00430
 kpt#   3, nband= 17, wtk=  0.12500, kpt= -0.3750  0.1250  0.5000 (reduced coord)
  -0.75979   -0.72908   -0.61225   -0.43592   -0.40568   -0.39111   -0.36779   -0.34901
  -0.34398   -0.27029   -0.22691   -0.21276   -0.20845   -0.19544   -0.16975   -0.15075
  -0.12644
      occupation numbers for kpt#   3
   2.00000    2.00000    2.00000    2.00000    2.00000    2.00000    2.00000    2.00000
   2.00000    2.03406    2.08458    1.78872    1.64336    1.10268    0.20438    0.01159
   0.00424
 kpt#   4, nband= 17, wtk=  0.12500, kpt= -0.1250  0.1250  0.5000 (reduced coord)
  -0.78489   -0.74530   -0.62723   -0.42932   -0.39352   -0.37452   -0.34745   -0.32424
  -0.29635   -0.25581   -0.24965   -0.23338   -0.21151   -0.18938   -0.18060   -0.17375
  -0.16203
      occupation numbers for kpt#   4
   2.00000    2.00000    2.00000    2.00000    2.00000    2.00000    2.00000    2.00006
   2.00270    2.08629    2.11303    2.13239    1.74897    0.83903    0.49958    0.29540
   0.08484
 kpt#   5, nband= 17, wtk=  0.12500, kpt=  0.1250  0.3750  0.5000 (reduced coord)
  -0.75105   -0.71866   -0.60304   -0.44662   -0.41791   -0.39548   -0.38140   -0.34577
  -0.32258   -0.28066   -0.24288   -0.21699   -0.20688   -0.19347   -0.16271   -0.12229
  -0.11033
      occupation numbers for kpt#   5
   2.00000    2.00000    2.00000    2.00000    2.00000    2.00000    2.00000    2.00000
   2.00008    2.01406    2.13616    1.90704    1.58480    1.01612    0.09273    0.00503
   0.00453
 kpt#   6, nband= 17, wtk=  0.12500, kpt=  0.3750  0.3750  0.5000 (reduced coord)
  -0.74571   -0.71761   -0.59970   -0.44232   -0.41991   -0.39950   -0.37178   -0.36067
  -0.32955   -0.28509   -0.24990   -0.20897   -0.20289   -0.19203   -0.16132   -0.12925
  -0.10994
      occupation numbers for kpt#   6
   2.00000    2.00000    2.00000    2.00000    2.00000    2.00000    2.00000    2.00000
   2.00003    2.00915    2.11199    1.66213    1.42567    0.95273    0.07719    0.00339
   0.00447
 kpt#   7, nband= 17, wtk=  0.12500, kpt= -0.3750  0.3750  0.5000 (reduced coord)
  -0.75581   -0.72689   -0.60707   -0.44657   -0.40735   -0.38563   -0.37028   -0.33390
  -0.31805   -0.28489   -0.23835   -0.22291   -0.21345   -0.19944   -0.17550   -0.13063
  -0.12578
      occupation numbers for kpt#   7
   2.00000    2.00000    2.00000    2.00000    2.00000    2.00000    2.00000    2.00001
   2.00015    2.00933    2.14184    2.02955    1.80956    1.27880    0.34163    0.00290
   0.00441
 kpt#   8, nband= 17, wtk=  0.12500, kpt= -0.1250  0.3750  0.5000 (reduced coord)
  -0.76189   -0.72767   -0.60989   -0.43518   -0.40431   -0.38778   -0.36679   -0.34372
  -0.31878   -0.28008   -0.23959   -0.23123   -0.21210   -0.19369   -0.16055   -0.14171
  -0.13109
      occupation numbers for kpt#   8
   2.00000    2.00000    2.00000    2.00000    2.00000    2.00000    2.00000    2.00000
   2.00014    2.01483    2.14141    2.12150    1.76793    1.02561    0.06942    0.00011
   0.00272
 Total charge density [el/Bohr^3]
      Maximum=    5.9764E-01  at reduced coord.    0.0667    0.0000    0.0069
 Next maximum=    5.9629E-01  at reduced coord.    0.0667    0.0333    0.0069
      Minimum=    0.0000E+00  at reduced coord.    0.8000    0.1000    0.3333
 Next minimum=    0.0000E+00  at reduced coord.    0.8000    0.1333    0.3333
   Integrated=    2.7000E+01

 Cartesian components of stress tensor (hartree/bohr^3)
  sigma(1 1)= -2.68685123E-04  sigma(3 2)= -5.57741264E-05
  sigma(2 2)= -2.27087629E-04  sigma(3 1)= -3.81711118E-04
  sigma(3 3)= -7.76114636E-04  sigma(2 1)= -3.82138453E-05

-Cartesian components of stress tensor (GPa)         [Pressure=  1.2473E+01 GPa]
- sigma(1 1)= -7.90498792E+00  sigma(3 2)= -1.64093117E+00
- sigma(2 2)= -6.68114757E+00  sigma(3 1)= -1.12303269E+01
- sigma(3 3)= -2.28340771E+01  sigma(2 1)= -1.12428996E+00

== END DATASET(S) ==============================================================

 -outvars: echo values of variables after computation  --------
            acell      8.1768000000E+00  8.1768000000E+00  8.1768000000E+00 Bohr
              amu      4.78800000E+01  1.40067400E+01
             ecut      3.00000000E+01 Hartree
           etotal     -4.0024021334E+01
            fcart     -1.0597891621E-01 -1.5163226484E-01 -1.4961533667E-01
                       1.5999361135E-01  6.9781567790E-02  1.7985762026E-01
                      -4.9595914928E-02  1.1500720589E-01 -8.7871255096E-02
                      -7.5702659595E-02 -1.6231351205E-01  5.0893326079E-02
                       1.0114976515E-01  7.1093852768E-02  8.1838997558E-02
                      -2.9865885779E-02  5.8063150444E-02 -7.5103352128E-02
-          fftalg         112
           iprcel          45
              kpt      1.25000000E-01  1.25000000E-01  5.00000000E-01
                       3.75000000E-01  1.25000000E-01  5.00000000E-01
                      -3.75000000E-01  1.25000000E-01  5.00000000E-01
                      -1.25000000E-01  1.25000000E-01  5.00000000E-01
                       1.25000000E-01  3.75000000E-01  5.00000000E-01
                       3.75000000E-01  3.75000000E-01  5.00000000E-01
                      -3.75000000E-01  3.75000000E-01  5.00000000E-01
                      -1.25000000E-01  3.75000000E-01  5.00000000E-01
         kptrlatt        4    0    0      0    4    0      0    0    1
          kptrlen      2.31274829E+01
P           mkmem           8
            natom           6
            nband          17
            ngfft          30      30     288
             nkpt           8
            nstep          80
             nsym           1
           ntypat           2
              occ      2.000000  2.000000  2.000000  2.000000  2.000000  2.000000
                       2.000000  2.000001  2.000144  2.071410  2.141837  1.993124
                       1.699822  0.903988  0.467778  0.028811  0.002980
                       2.000000  2.000000  2.000000  2.000000  2.000000  2.000000
                       2.000000  2.000000  2.000001  2.043524  2.119426  1.670811
                       1.433678  0.934267  0.035052  0.003975  0.004301
                       2.000000  2.000000  2.000000  2.000000  2.000000  2.000000
                       2.000000  2.000001  2.000002  2.034062  2.084583  1.788721
                       1.643356  1.102677  0.204381  0.011591  0.004239
                       2.000000  2.000000  2.000000  2.000000  2.000000  2.000000
                       2.000001  2.000061  2.002699  2.086291  2.113030  2.132386
                       1.748969  0.839031  0.499582  0.295402  0.084838
                       2.000000  2.000000  2.000000  2.000000  2.000000  2.000000
                       2.000000  2.000002  2.000078  2.014057  2.136157  1.907039
                       1.584804  1.016124  0.092727  0.005035  0.004532
                       2.000000  2.000000  2.000000  2.000000  2.000000  2.000000
                       2.000000  2.000000  2.000026  2.009151  2.111995  1.662133
                       1.425666  0.952729  0.077194  0.003389  0.004470
                       2.000000  2.000000  2.000000  2.000000  2.000000  2.000000
                       2.000000  2.000013  2.000154  2.009334  2.141840  2.029548
                       1.809560  1.278801  0.341628  0.002895  0.004406
                       2.000000  2.000000  2.000000  2.000000  2.000000  2.000000
                       2.000000  2.000002  2.000139  2.014828  2.141410  2.121504
                       1.767927  1.025608  0.069422  0.000114  0.002724
           occopt           4
           prtpot           1
            rprim      7.0710678120E-01  0.0000000000E+00  0.0000000000E+00
                      -3.5355339060E-01  6.1237243570E-01  0.0000000000E+00
                       0.0000000000E+00  0.0000000000E+00  7.0000000000E+00
           shiftk      5.00000000E-01  5.00000000E-01  5.00000000E-01
          spgroup           1
           strten     -2.6868512347E-04 -2.2708762861E-04 -7.7611463610E-04
                      -5.5774126357E-05 -3.8171111835E-04 -3.8213845316E-05
           toldfe      1.00000000E-06 Hartree
           tsmear      4.00000000E-02 Hartree
            typat      2  1  2  1  2  1
              wtk        0.12500    0.12500    0.12500    0.12500    0.12500    0.12500
                         0.12500    0.12500
           xangst      0.0000000000E+00  0.0000000000E+00  0.0000000000E+00
                       7.6947144071E-01  5.4087202482E-01  1.2490904367E+00
                      -6.2454521841E-01  1.0817440499E+00  2.4981808734E+00
                       0.0000000000E+00  0.0000000000E+00  3.7472713101E+00
                       7.6947144071E-01  5.4087202482E-01  4.9963617451E+00
                      -6.2454521841E-01  1.0817440499E+00  2.9039742956E+01
            xcart      0.0000000000E+00  0.0000000000E+00  0.0000000000E+00
                       1.4540902900E+00  1.0220999998E+00  2.3604388406E+00
                      -1.1802194204E+00  2.0442000002E+00  4.7208776812E+00
                       0.0000000000E+00  0.0000000000E+00  7.0813165218E+00
                       1.4540902900E+00  1.0220999998E+00  9.4417553591E+00
                      -1.1802194204E+00  2.0442000002E+00  5.4877161156E+01
             xred      0.0000000000E+00  0.0000000000E+00  0.0000000000E+00
                       3.5355339060E-01  2.0412414520E-01  4.1239304943E-02
                       3.1046525818E-18  4.0824829050E-01  8.2478609886E-02
                       0.0000000000E+00  0.0000000000E+00  1.2371791483E-01
                       3.5355339060E-01  2.0412414520E-01  1.6495721971E-01
                       3.1046525818E-18  4.0824829050E-01  9.5876069500E-01
            znucl       22.00000    7.00000

 Suggested references for the acknowledgment of ABINIT usage.

 Calculation completed.
.Delivered   6 WARNINGs and   3 COMMENTs to log file.

--- !FinalSummary
program: abinit
version: 8.10.3
start_datetime: Thu Aug 01 15:17:37 2019
end_datetime: Thu Aug 01 15:19:45 2019
overall_cpu_time:         126.8
overall_wall_time:         127.9
exit_requested_by_user: no
timelimit: 0
pseudos:
    Ti  : acba5ffa509dfe8dc8d41c2eda6ed602
    N   : 850cffee74fed56ee85ec65b737f92ba
usepaw: 0
mpi_procs: 1
omp_threads: 1
num_warnings: 6
num_comments: 3
...