.Version 7.10.4 of ABINIT

 ABINIT is a project of the Universite Catholique de Louvain,
 Corning Inc. and other collaborators, see ~abinit/doc/developers/contributors.txt .
 Please read ~abinit/doc/users/acknowledgments.html for suggested
 acknowledgments of the ABINIT effort.

.Starting date : Mon 10 Aug 2015.
- ( at 13h24 )

 === Build Information ===
  Version       : 7.10.4
  Build target  : x86_64_linux_gnu4.8
  Build date    : 20150810

 === Optimizations ===
  Debug level        : basic
  Optimization level : standard
  Architecture       : intel_core2

 === Multicore ===
  Parallel build : yes
  Parallel I/O   : auto
  openMP support : no
  GPU support    : no

 === Connectors / Fallbacks ===
  Connectors on : yes
  Fallbacks on  : yes
  DFT flavor    : none
  FFT flavor    : none
  LINALG flavor : netlib-fallback
  MATH flavor   : none
  TIMER flavor  : abinit
  TRIO flavor   : none

 === Experimental features ===
  Bindings            : @enable_bindings@
  Exports             : no
  GW double-precision : no

 Default optimizations:
   -O2 -mtune=native -march=native

 CPP options activated during the build:

                    CC_GNU                   CXX_GNU                    FC_GNU

 HAVE_FC_ALLOCATABLE_DT...             HAVE_FC_ASYNC         HAVE_FC_BACKTRACE

  HAVE_FC_COMMAND_ARGUMENT      HAVE_FC_COMMAND_LINE        HAVE_FC_CONTIGUOUS

           HAVE_FC_CPUTIME              HAVE_FC_EXIT             HAVE_FC_FLUSH

             HAVE_FC_GAMMA            HAVE_FC_GETENV          HAVE_FC_INT_QUAD

             HAVE_FC_IOMSG     HAVE_FC_ISO_C_BINDING        HAVE_FC_LONG_LINES

        HAVE_FC_MOVE_ALLOC           HAVE_FC_PRIVATE         HAVE_FC_PROTECTED

         HAVE_FC_STREAM_IO            HAVE_FC_SYSTEM          HAVE_FORTRAN2003

        HAVE_LIBPAW_ABINIT                  HAVE_MPI                 HAVE_MPI2

       HAVE_MPI_IALLREDUCE        HAVE_MPI_IALLTOALL       HAVE_MPI_IALLTOALLV

               HAVE_MPI_IO HAVE_MPI_TYPE_CREATE_S...             HAVE_OS_LINUX

                HAVE_TIMER         HAVE_TIMER_ABINIT            HAVE_TIMER_MPI

         HAVE_TIMER_SERIAL              USE_MACROAVE

- input  file    -> tmoldyn_01.in
- output file    -> tmoldyn_01.outI
- root for input  files -> tmoldyn_in
- root for output files -> tmoldyn_out

-instrng :    79 lines of input have been read from file tmoldyn_01.in

 iofn2 : Please give name of formatted atomic psp file
 iofn2 : for atom type   1 , psp file is ../../../Psps_for_tests/13al.pspnc
  read the values zionpsp=  3.0 , pspcod=   1 , lmax=   2
nproj =      1     1     0     0
nprojso =      0     0     0

 inpspheads: deduce mpsang  =   3, n1xccc  =2501.

 invars1m : enter jdtset=0
 invars1 : treat image number     1

 symlatt : the Bravais lattice is cP (primitive cubic)
  xred   is defined in input file
 ingeo : takes atomic coordinates from input array xred

 symlatt : the Bravais lattice is cP (primitive cubic)

 symlatt : the Bravais lattice is cP (primitive cubic)

--- !COMMENT
message: |
    The Bravais lattice determined only from the primitive
    vectors, bravais(1)=  7, is more symmetric
    than the real one, iholohedry=  1, obtained by taking into
    account the atomic positions. Start deforming the primitive vector set.
src_file: symbrav.F90
src_line: 201
...

 symlatt : the Bravais lattice is hR (rhombohedral)

--- !COMMENT
message: |
    The Bravais lattice determined from modified primitive
    vectors, bravais(1)=  5, has a lower symmetry than before,
    but is still more symmetric than the real one, iholohedry=  1
    obtained by taking into account the atomic positions.
src_file: symbrav.F90
src_line: 210
...

 symlatt : the Bravais lattice is mC (one-face-centered monoclinic)

--- !COMMENT
message: |
    The Bravais lattice determined from modified primitive
    vectors, bravais(1)=  2, has a lower symmetry than before,
    but is still more symmetric than the real one, iholohedry=  1
    obtained by taking into account the atomic positions.
src_file: symbrav.F90
src_line: 210
...

 symlatt : the Bravais lattice is aP (primitive triclinic)
 symspgr : spgroup=   1  P1   (=C1^1)
 inkpts: Sum of    1 k point weights is    1.000000
 inkpts: Sum of    1 k point weights is    1.000000
  dtset%nelect=   96.000000000000000
 chkneu : initialized the occupation numbers for occopt=    3
    spin-unpolarized case :
  2.00  2.00  2.00  2.00  2.00  2.00  2.00  2.00  2.00  2.00  2.00  2.00
  2.00  2.00  2.00  2.00  2.00  2.00  2.00  2.00  2.00  2.00  2.00  2.00
  2.00  2.00  2.00  2.00  2.00  2.00  2.00  2.00  2.00  2.00  2.00  2.00
  2.00  2.00  2.00  2.00  2.00  2.00  2.00  2.00  2.00  2.00  2.00  2.00
  0.00  0.00  0.00  0.00  0.00  0.00  0.00  0.00  0.00  0.00  0.00  0.00
  0.00  0.00  0.00  0.00  0.00  0.00  0.00  0.00  0.00  0.00  0.00  0.00
  0.00  0.00  0.00  0.00  0.00  0.00  0.00  0.00
npfft, npband, npspinor and npkpt:     1    2    1    1
mpi_setup: mkmem  undefined in the input file.Use default mkmem  = nkpt
 mpi_setup: With nkpt_me=1 and mkmem  = 1, ground state wf handled in core.
mpi_setup: mkqmem undefined in the input file.Use default mkqmem = nkpt
 mpi_setup: With nkpt_me=1 and mkqmem = 1, ground state wf handled in core.
mpi_setup: mk1mem undefined in the input file.Use default mk1mem = nkpt
 mpi_setup: With nkpt_me=1 and mk1mem = 1, ground state wf handled in core.
 For input ecut=  3.000000E+00 best grid ngfft=      20      20      20
       max ecut=  3.007264E+00

 ==== FFT mesh ====
  FFT mesh divisions ........................    20   20   20
  Augmented FFT divisions ...................    21   21   20
  FFT algorithm .............................   112
  FFT cache size ............................    16
 getmpw: optimal value of mpw=     122

 Symmetries : space group P1 (#  1); Bravais aP (primitive triclinic)

 getdim_nloc : deduce lmnmax  =   4, lnmax  =   2,
                      lmnmaxso=   4, lnmaxso=   2.
   intxc =         0  ionmov =        12    iscf =         7 xclevel =         1
  lmnmax =         2   lnmax =         2   mband =        80  mffmem =         1
P  mgfft =        20   mkmem =         1 mpssoang=         3     mpw =       122
  mqgrid =      3001   natom =        32    nfft =      8000    nkpt =         1
  nloalg =         4  nspden =         1 nspinor =         1  nsppol =         1
    nsym =         1  n1xccc =      2501  ntypat =         1  occopt =         3
  Rough estimation (10% accuracy) of disk space for files :

 The job will continue.
------------- Echo of variables that govern the present computation ------------
-
- outvars: echo of selected default values
-   accesswff0 =  0 , fftalg0 =112 , wfoptalg0 =  0
-
- outvars: echo of global parameters not present in the input file
-  max_nthreads =    0
-
 -outvars: echo values of preprocessed input variables --------
        accesswff           1
            acell      1.2810000000E+01  1.2810000000E+01  1.2810000000E+01 Bohr
              amu      2.69815390E+01
           bandpp           2
             ecut      3.00000000E+00 Hartree
-          fftalg         112
      fft_opt_lob           2
           ionmov          12
           iprcch           6
           istwfk        2
           kptopt           0
           mdtemp      3.00000000E+03  3.00000000E+03
P           mkmem           1
            natom          32
            nband          80
            ngfft          20      20      20
             nkpt           1
-          npband           2
            nstep          50
             nsym           1
            ntime           5
           ntypat           1
              occ      2.000000  2.000000  2.000000  2.000000  2.000000  2.000000
                       2.000000  2.000000  2.000000  2.000000  2.000000  2.000000
                       2.000000  2.000000  2.000000  2.000000  2.000000  2.000000
                       2.000000  2.000000  2.000000  2.000000  2.000000  2.000000
                       2.000000  2.000000  2.000000  2.000000  2.000000  2.000000
                       2.000000  2.000000  2.000000  2.000000  2.000000  2.000000
                       2.000000  2.000000  2.000000  2.000000  2.000000  2.000000
                       2.000000  2.000000  2.000000  2.000000  2.000000  2.000000
                       0.000000  0.000000  0.000000  0.000000  0.000000  0.000000
                       0.000000  0.000000  0.000000  0.000000  0.000000  0.000000
                       0.000000  0.000000  0.000000  0.000000  0.000000  0.000000
                       0.000000  0.000000  0.000000  0.000000  0.000000  0.000000
                       0.000000  0.000000  0.000000  0.000000  0.000000  0.000000
                       0.000000  0.000000
           occopt           3
           ortalg          -2
        paral_kgb           1
           prtden           0
           prteig           0
            prtwf           0
          spgroup           1
           tolvrs      1.00000000E-03
           tsmear      9.50044600E-03 Hartree
            typat      1  1  1  1  1  1  1  1  1  1  1  1  1  1  1  1  1  1  1  1
                       1  1  1  1  1  1  1  1  1  1  1  1
         wfoptalg          14
           xangst      0.0000000000E+00  0.0000000000E+00  0.0000000000E+00
                       0.0000000000E+00  1.6946900105E+00  1.6946900105E+00
                       1.6946900105E+00  0.0000000000E+00  1.6946900105E+00
                       1.6946900105E+00  1.6946900105E+00  0.0000000000E+00
                       0.0000000000E+00  0.0000000000E+00  3.3893800210E+00
                       0.0000000000E+00  1.6946900105E+00  5.0840700315E+00
                       1.6946900105E+00  0.0000000000E+00  5.0840700315E+00
                       1.6946900105E+00  1.6946900105E+00  3.3893800210E+00
                       0.0000000000E+00  3.3893800210E+00  0.0000000000E+00
                       0.0000000000E+00  5.0840700315E+00  1.6946900105E+00
                       1.6946900105E+00  3.3893800210E+00  1.6946900105E+00
                       1.6946900105E+00  5.0840700315E+00  0.0000000000E+00
                       0.0000000000E+00  3.3893800210E+00  3.3893800210E+00
                       0.0000000000E+00  5.0840700315E+00  5.0840700315E+00
                       1.6946900105E+00  3.3893800210E+00  5.0840700315E+00
                       1.6946900105E+00  5.0840700315E+00  3.3893800210E+00
                       3.3893800210E+00  0.0000000000E+00  0.0000000000E+00
                       3.3893800210E+00  1.6946900105E+00  1.6946900105E+00
                       5.0840700315E+00  0.0000000000E+00  1.6946900105E+00
                       5.0840700315E+00  1.6946900105E+00  0.0000000000E+00
                       3.3893800210E+00  0.0000000000E+00  3.3893800210E+00
                       3.3893800210E+00  1.6946900105E+00  5.0840700315E+00
                       5.0840700315E+00  0.0000000000E+00  5.0840700315E+00
                       5.0840700315E+00  1.6946900105E+00  3.3893800210E+00
                       3.3893800210E+00  3.3893800210E+00  0.0000000000E+00
                       3.3893800210E+00  5.0840700315E+00  1.6946900105E+00
[...]
                      -3.3093555129E-02  8.6718268116E-02 -1.5554233889E-02
                      -3.7959695268E-02  8.1542985854E-02  2.0487382598E-02
                      -3.0608162808E-02 -1.6041314420E-01 -7.1375533796E-03
                      -3.3324352418E-02  3.9832006585E-02 -3.9858769387E-02
                      -1.2625175535E-02 -3.0104651327E-02 -3.6965170537E-02
                      -4.0978883162E-03 -1.3927693802E-03 -6.0040699332E-04
                       1.4892931391E-02  2.2797861688E-02  1.0978342104E-02
                      -3.9114815590E-02  1.3416780926E-01  7.6722335709E-02
                       2.3139048285E-02 -2.1030626913E-02  4.9435093739E-02
                      -6.0097407099E-03 -3.9570420576E-03 -2.1766173027E-02
                       1.9528222338E-03 -1.0205732430E-01 -7.2389604384E-02
                      -1.2836727812E-04 -4.1424328447E-02  5.1059899137E-02
                      -5.8862661838E-03 -6.2684937065E-02 -6.0983566723E-02
                       8.4074820305E-03  6.1146697866E-02 -6.3679345438E-03
                       6.2819303345E-02 -3.8287459206E-02  4.8841523447E-02
                       2.7640925686E-02  2.3173717378E-02 -3.1286063978E-02
                       6.5242523640E-02 -2.8911423084E-02  8.3721219989E-02
                       1.0681361220E-01  1.0884555040E-01 -2.2522652373E-02
                       4.5041813970E-02  4.3038541565E-02  1.8758685511E-02
                      -5.9426474351E-04 -5.0887691380E-02 -5.5154583206E-02
                       5.0149090562E-02 -3.3292443772E-02  4.6005962363E-03
                       6.2956117754E-02  2.7206018699E-03 -4.4089123426E-02
                      -7.7214843182E-03  1.5082272099E-02 -9.9821324443E-03
                      -1.5118688554E-02 -4.2114626548E-02  7.6829421265E-02
                      -1.6494716407E-02  2.2886837587E-02  3.8960122955E-02
                      -9.5680155471E-02 -2.4368339146E-02  2.9045161505E-02
                       1.4879682812E-02 -1.6304106282E-02  6.3991556665E-02
                       1.8193098432E-02  2.7834824203E-03 -9.5159932534E-02
-          fftalg         112
      fft_opt_lob           2
           ionmov          12
           iprcch           6
           istwfk        2
           kptopt           0
           mdtemp      3.00000000E+03  3.00000000E+03
P           mkmem           1
            natom          32
            nband          80
            ngfft          20      20      20
             nkpt           1
-          npband           2
            nstep          50
             nsym           1
            ntime           5
           ntypat           1
              occ      2.000000  2.000000  2.000000  2.000000  2.000000  2.000000
                       2.000000  2.000000  2.000000  2.000000  2.000000  2.000000
                       2.000000  2.000000  2.000000  2.000000  2.000000  2.000000
                       2.000000  2.000000  2.000000  2.000000  2.000000  2.000000
                       2.000000  2.000000  2.000000  1.999999  1.999999  1.999998
                       1.995543  1.994783  1.991504  1.979725  1.974169  1.971332
                       1.957840  1.952101  1.939462  1.910458  1.877205  1.856790
                       1.831796  1.732853  1.726557  1.657015  1.455875  1.313832
                       1.217742  0.951948  0.700404  0.002586  0.001996  0.001649
                       0.001148  0.000898  0.000769  0.000564  0.000467  0.000336
                       0.000278  0.000251  0.000132  0.000000  0.000000  0.000000
                       0.000000  0.000000  0.000000  0.000000  0.000000  0.000000
                       0.000000  0.000000  0.000000  0.000000  0.000000  0.000000
                       0.000000  0.000000
           occopt           3
           ortalg          -2
        paral_kgb           1
           prtden           0
           prteig           0
            prtwf           0
          spgroup           1
           strten     -4.0863892885E-03 -4.0411608322E-03 -4.0466146618E-03
                      -3.5824696191E-05  9.4886917594E-06  2.6709690054E-05
           tolvrs      1.00000000E-03
           tsmear      9.50044600E-03 Hartree
            typat      1  1  1  1  1  1  1  1  1  1  1  1  1  1  1  1  1  1  1  1
                       1  1  1  1  1  1  1  1  1  1  1  1
              vel      2.8084536129E-04 -3.2273281267E-04  2.9427957702E-04
                       4.8307153031E-04 -2.2745079467E-04  5.7219498065E-04
                       6.9494610844E-04 -3.4284426922E-05  1.3468372374E-04
                       5.0601648992E-05  3.5249747150E-04  1.9994063342E-04
                       3.8993341095E-04 -1.2894426846E-03  1.2110521539E-04
                       4.2959325152E-05 -1.1691065984E-03 -2.2666479676E-04
                       2.1661550186E-04  9.0584053273E-04  5.2200394141E-04
                       1.5202276976E-04 -1.6565774873E-04  5.1055569797E-04
                      -1.3369489195E-04  2.0006461832E-04  3.7988116381E-04
                      -8.4016819492E-05  1.7055388076E-04 -2.8316347865E-04
                      -1.0288064033E-04 -3.5804181623E-04  6.3607248120E-05
                       7.3256825434E-04 -1.0377655914E-03 -5.1983162050E-04
                      -1.4531482155E-04  4.9906414214E-04 -5.3494390037E-04
                       3.7237345625E-04  1.8688198112E-04  3.9801921829E-04
                      -2.8785832736E-06  8.4520287188E-04 -1.3691663564E-05
                       2.0723562702E-04  1.9506332359E-04 -4.7800649937E-04
                      -1.5583411269E-04  4.8326416951E-04  6.0683421019E-04
                      -1.2923164195E-04 -1.0911482759E-04  1.2435358389E-04
                      -5.4165546786E-04  2.0235824794E-04 -2.7254081915E-04
                      -1.6533398800E-04 -1.2568654391E-04  1.8824304396E-04
                      -4.1764325860E-04  3.3592647084E-04 -6.5625486020E-04
                      -7.1171456486E-04 -6.5250740753E-04  3.7217890619E-04
                      -7.0281437363E-04  1.0812253037E-04 -5.3712020240E-04
                      -7.7533784010E-06  4.4819842892E-04  6.6608567256E-04
                       6.4275654120E-05  1.1642020052E-04 -1.7342967559E-04
                      -4.3267676186E-04 -3.2568130497E-04  3.1472035706E-04
                      -6.4069849435E-05 -1.8299346877E-04 -1.2153544568E-05
                      -3.3734516792E-05  6.9447587276E-04 -1.0209351009E-03
                      -2.8087341554E-05 -4.0005317049E-04 -3.7564742430E-04
                       4.3466144920E-04  4.6399666942E-04 -5.3596904567E-04
                      -1.1808091381E-04  8.3135783008E-05 -4.5436627276E-04
                      -1.4469417165E-04  1.0945200153E-04  6.2603173113E-04
         wfoptalg          14
           xangst      5.2563572987E-02 -6.7967353846E-02  5.6588648975E-02
                       1.0061017179E-01  1.6543087149E+00  1.8085749939E+00
                       1.8471175110E+00 -5.9953189949E-03  1.7292749381E+00
                       1.7105047704E+00  1.7632388792E+00  3.7616736067E-02
                       8.2127016723E-02 -2.6579163410E-01  3.4165471883E+00
                       1.3885731084E-02  1.4497705311E+00  5.0356764011E+00
                       1.7394819982E+00  2.0373550330E-01  5.1868637312E+00
                       1.7307900972E+00  1.6546115738E+00  3.4954985900E+00
                      -2.2535658324E-02  3.4352304795E+00  8.1362179258E-02
                      -1.5310275070E-02  5.1164550503E+00  1.6405143783E+00
                       1.6719632060E+00  3.3169350862E+00  1.7046543965E+00
                       1.8430100761E+00  4.8586085440E+00 -1.1243410857E-01
                      -3.3703132169E-02  3.4909940923E+00  3.2751529629E+00
                       7.2835935066E-02  5.1208610950E+00  5.1662499823E+00
                       1.6946610417E+00  3.5709118295E+00  5.0927929343E+00
                       1.7353006745E+00  5.1284353446E+00  3.2864768101E+00
                       3.3607919119E+00  1.0615867484E-01  1.2788580270E-01
                       3.3629552998E+00  1.6622266538E+00  1.7195576322E+00
                       4.9675690866E+00  4.6540892224E-02  1.6318231084E+00
                       5.0463464613E+00  1.6653395124E+00  4.2716466738E-02
                       3.2972738272E+00  7.0078087712E-02  3.2484686593E+00
                       3.2347196284E+00  1.5497133213E+00  5.1604050289E+00
                       4.9397245970E+00  1.4500197723E-02  4.9759700243E+00
                       5.0823985083E+00  1.7919351768E+00  3.5281547890E+00
                       3.3931212789E+00  3.4169759285E+00 -3.4480697503E-02
                       3.2930127259E+00  5.0204061278E+00  1.7637876022E+00
                       5.0733501903E+00  3.3499957421E+00  1.6953032160E+00
                       5.0812859797E+00  5.2272420970E+00 -2.1341668322E-01
                       3.3876585955E+00  3.3083667471E+00  3.3091630520E+00
                       3.4895054411E+00  5.1766027022E+00  4.9757659556E+00
                       5.0579707602E+00  3.4109581473E+00  4.9842394331E+00
                       5.0541334753E+00  5.1037380789E+00  3.5283663519E+00
            xcart      9.9330757511E-02 -1.2843968475E-01  1.0693704879E-01
                       1.9012567086E-01  3.1261904104E+00  3.4177114292E+00
                       3.4905462311E+00 -1.1329510980E-02  3.2678560416E+00
                       3.2323855650E+00  3.3320385885E+00  7.1085329180E-02
                       1.5519756972E-01 -5.0227339687E-01  6.4563385060E+00
                       2.6240228903E-02  2.7396692593E+00  9.5160492919E+00
                       3.2871445896E+00  3.8500430478E-01  9.8017519406E+00
                       3.2707192771E+00  3.1267627308E+00  6.6055350330E+00
                      -4.2586222457E-02  6.4916448097E+00  1.5375223637E-01
                      -2.8932226902E-02  9.6686988162E+00  3.1001228921E+00
                       3.1595525635E+00  6.2680989134E+00  3.2213299607E+00
                       3.4827843040E+00  9.1814395351E+00 -2.1246967320E-01
                      -6.3689689621E-02  6.5970227659E+00  6.1891421432E+00
                       1.3763996991E-01  9.6770250342E+00  9.7627976006E+00
                       3.2024452568E+00  6.7480454024E+00  9.6239838974E+00
                       3.2792430329E+00  9.6913382914E+00  6.2105411132E+00
                       6.3509763031E+00  2.0061082209E-01  2.4166914338E-01
                       6.3550645137E+00  3.1411531464E+00  3.2494929945E+00
                       9.3873451199E+00  8.7949540284E-02  3.0836987723E+00
                       9.5362127836E+00  3.1470355967E+00  8.0722423499E-02
                       6.2309445186E+00  1.3242839369E-01  6.1387161174E+00
                       6.1127342143E+00  2.9285337618E+00  9.7517522395E+00
                       9.3347266603E+00  2.7401402569E-02  9.4032205914E+00
                       9.6043412788E+00  3.3862667320E+00  6.6672463055E+00
                       6.4120699528E+00  6.4571487074E+00 -6.5159075152E-02
                       6.2228922040E+00  9.4871926574E+00  3.3330755248E+00
                       9.5872424359E+00  6.3305744990E+00  3.2036587904E+00
                       9.6022389046E+00  9.8780559936E+00 -4.0329908348E-01
                       6.4017469772E+00  6.2519070992E+00  6.2534118974E+00
                       6.5942096228E+00  9.7823614060E+00  9.4028349575E+00
                       9.5581795250E+00  6.4457767490E+00  9.4188475092E+00
                       9.5509281074E+00  9.6446672231E+00  6.6676461017E+00
             xred      7.7541574950E-03 -1.0026517154E-02  8.3479351126E-03
                       1.4841972745E-02  2.4404296725E-01  2.6680026769E-01
                       2.7248604458E-01 -8.8442708662E-04  2.5510195484E-01
                       2.5233298712E-01  2.6011230199E-01  5.5492060250E-03
                       1.2115345021E-02 -3.9209476727E-02  5.0400768977E-01
                       2.0484175568E-03  2.1386957528E-01  7.4286099078E-01
                       2.5660769630E-01  3.0054980857E-02  7.6516408592E-01
                       2.5532547050E-01  2.4408764487E-01  5.1565456932E-01
                      -3.3244514018E-03  5.0676384151E-01  1.2002516501E-02
                      -2.2585657222E-03  7.5477742515E-01  2.4200803217E-01
                       2.4664735078E-01  4.8931295186E-01  2.5146994229E-01
                       2.7188011741E-01  7.1674001055E-01 -1.6586235222E-02
                      -4.9718727261E-03  5.1499006760E-01  4.8314926957E-01
                       1.0744728330E-02  7.5542740313E-01  7.6212315383E-01
                       2.4999572653E-01  5.2677950058E-01  7.5128679917E-01
                       2.5599086908E-01  7.5654475343E-01  4.8481975903E-01
                       4.9578269345E-01  1.5660485721E-02  1.8865663028E-02
                       4.9610183557E-01  2.4521101846E-01  2.5366846171E-01
                       7.3281382669E-01  6.8656940112E-03  2.4072589948E-01
                       7.4443503385E-01  2.4567022613E-01  6.3015162763E-03
                       4.8641253073E-01  1.0337891779E-02  4.7921281166E-01
                       4.7718456005E-01  2.2861309616E-01  7.6126090862E-01
                       7.2870621860E-01  2.1390634324E-03  7.3405312970E-01
                       7.4975341755E-01  2.6434556846E-01  5.2047199887E-01
                       5.0055190889E-01  5.0407093735E-01 -5.0865788565E-03
                       4.8578393474E-01  7.4060832611E-01  2.6019324940E-01
                       7.4841861327E-01  4.9419004676E-01  2.5009045982E-01
                       7.4958929778E-01  7.7112068647E-01 -3.1483144690E-02
                       4.9974605598E-01  4.8804895388E-01  4.8816642446E-01
                       5.1477046236E-01  7.6365038298E-01  7.3402302556E-01
                       7.4614984582E-01  5.0318319665E-01  7.3527302960E-01
                       7.4558377107E-01  7.5290142257E-01  5.2050320856E-01
            znucl       13.00000

 Suggested references for the acknowledgment of ABINIT usage.

 [1] Large scale ab initio calculations based on three levels of parallelization
 F. Bottin, S. Leroux, A. Knyazev, G. Zerah, Comput. Mat. Science 42, 329, (2008).
 Comment : in case paral_kgb is non-zero. Strong suggestion to cite this paper in your publications.

 [2] ABINIT : First-principles approach of materials and nanosystem properties.
 X. Gonze, B. Amadon, P.-M. Anglade, J.-M. Beuken, F. Bottin, P. Boulanger, F. Bruneval,
 D. Caliste, R. Caracas, M. Cote, T. Deutsch, L. Genovese, Ph. Ghosez, M. Giantomassi
 S. Goedecker, D.R. Hamann, P. Hermet, F. Jollet, G. Jomard, S. Leroux, M. Mancini, S. Mazevet,
 M.J.T. Oliveira, G. Onida, Y. Pouillon, T. Rangel, G.-M. Rignanese, D. Sangalli, R. Shaltaf,
 M. Torrent, M.J. Verstraete, G. Zerah, J.W. Zwanziger
 Computer Phys. Comm. 180, 2582-2615 (2009).
 Comment : the third generic paper describing the ABINIT project.
 Note that a version of this paper, that is not formatted for Computer Phys. Comm.
 The licence allows the authors to put it on the Web.

 [3] A brief introduction to the ABINIT software package.
 X. Gonze, G.-M. Rignanese, M. Verstraete, J.-M. Beuken, Y. Pouillon, R. Caracas, F. Jollet,
 M. Torrent, G. Zerah, M. Mikami, Ph. Ghosez, M. Veithen, J.-Y. Raty, V. Olevano, F. Bruneval,
 L. Reining, R. Godby, G. Onida, D.R. Hamann, and D.C. Allan.
 Z. Kristallogr. 220, 558-562 (2005).
 Comment : the second generic paper describing the ABINIT project. Note that this paper
 should be cited especially if you are using the GW part of ABINIT, as several authors
 of this part are not in the list of authors of the first or third paper.
 Note that it should not redistributed (Copyright by Oldenburg Wissenshaftverlag,
 the licence allows the authors to put it on the Web).

 And optionally :

 [4] First-principles computation of material properties : the ABINIT software project.
 X. Gonze, J.-M. Beuken, R. Caracas, F. Detraux, M. Fuchs, G.-M. Rignanese, L. Sindic,
 M. Verstraete, G. Zerah, F. Jollet, M. Torrent, A. Roy, M. Mikami, Ph. Ghosez, J.-Y. Raty, D.C. Allan.
 Comment : the original paper describing the ABINIT project.

 [5] Fast radix 2, 3, 4 and 5 kernels for Fast Fourier Transformations
 on computers with overlapping multiply-add instructions.
 S. Goedecker, SIAM J. on Scientific Computing 18, 1605 (1997).

 Calculation completed.
.Delivered    0 WARNINGs and   0 COMMENTs to log file.
--- !FinalSummary
start_date: Mon Aug 10 13:24:55 2015
end_date: Mon Aug 10 13:26:41 2015
overall_cpu_time:         211.5
overall_wall_time:         211.6
...