.Version 7.10.5 of ABINIT

 ABINIT is a project of the Universite Catholique de Louvain,
 Corning Inc. and other collaborators, see ~abinit/doc/developers/contributors.txt .
 Please read ~abinit/doc/users/acknowledgments.html for suggested
 acknowledgments of the ABINIT effort.

.Starting date : Tue 10 Jan 2017.
- ( at 17h32 )

- input  file    -> Ba3Si6N2O12-Eu0_band.in
- output file    -> Ba3Si6N2O12-Eu0_band.out
- root for input  files -> Ba3Si6N2O12-Eu0_bandi
- root for output files -> Ba3Si6N2O12-Eu0_bando

- inpspheads : Reading pseudopotential header in XML form from /home/z9wang/bin/abinit/JTH-PBE-atomicdata-1.0/Ba.GGA_PBE-JTH.xml
- inpspheads : Reading pseudopotential header in XML form from /home/z9wang/bin/abinit/JTH-PBE-atomicdata-1.0/Si.GGA_PBE-JTH.xml
- inpspheads : Reading pseudopotential header in XML form from /home/z9wang/bin/abinit/JTH-PBE-atomicdata-1.0/N.GGA_PBE-JTH.xml
- inpspheads : Reading pseudopotential header in XML form from /home/z9wang/bin/abinit/JTH-PBE-atomicdata-1.0/O.GGA_PBE-JTH.xml

 DATASET    1 : space group P1 (#  1); Bravais aP (primitive triclinic)
   intxc =         0  ionmov =         0    iscf =        17 xclevel =         2
  lmnmax =        19   lnmax =         7   mband =       214  mffmem =         1
P  mgfft =       144   mkmem =         1 mpssoang=         3     mpw =      2120
  mqgrid =      8439   natom =        69    nfft =    103680    nkpt =         1
  nloalg =         4  nspden =         1 nspinor =         1  nsppol =         1
    nsym =         1  n1xccc =         1  ntypat =         5  occopt =         1
Pmy_natom=        35
 PAW method is used; the additional fine FFT grid is defined by:
   mgfftf=       216    nfftf =    373248
  Rough estimation (10% accuracy) of disk space for files :

 DATASET    2 : space group P1 (#  1); Bravais aP (primitive triclinic)
   intxc =         0  ionmov =         0    iscf =        -2 xclevel =         2
  lmnmax =        19   lnmax =         7   mband =       260  mffmem =         1
P  mgfft =       144   mkmem =         3 mpssoang=         3     mpw =     50034
  mqgrid =      8439   natom =        69    nfft =   1244160    nkpt =        67
  nloalg =         4  nspden =         1 nspinor =         1  nsppol =         1
    nsym =         1  n1xccc =         1  ntypat =         5  occopt =         1
Pmy_natom=         3
 PAW method is used; the additional fine FFT grid is defined by:
   mgfftf=       216    nfftf =   4478976
  Rough estimation (10% accuracy) of disk space for files :

------------- Echo of variables that govern the present computation ------------
-
- outvars: echo of selected default values
-   accesswff0 =  0 , fftalg0 =112 , wfoptalg0 = 10
-
- outvars: echo of global parameters not present in the input file
-  max_nthreads =    0
-
 -outvars: echo values of preprocessed input variables --------
        accesswff1          1
        accesswff2          0
            acell      1.0000000000E+00  1.0000000000E+00  1.0000000000E+00 Bohr
              amu      1.51965000E+02  1.37327000E+02  2.80855000E+01
                       1.40067400E+01  1.59994000E+01
        autoparal           1
      chksymbreak           0
           diemac      2.00000000E+00
             ecut      3.00000000E+01 Hartree
           ecutsm      5.00000000E-01 Hartree
           enunit1          0
           enunit2          1
-          fftalg1        401
-          fftalg2        112
      fft_opt_lob1          2
      fft_opt_lob2          1
           getden1          0
           getden2         -1
           iprcch1          6
           iprcch2          2
             iscf1         17
             iscf2         -2
           istwfk2       2    0    0    0    0    0    3    0    0    0
                         0    0    0    0    0    0    0    0    2    0
                         0    0    0    0    4    0    0    0    0    0
                         5    0    0    0    0    0    0    0    0    0
                         0    0    4    0    0    0    0    0    5    0
                       outvar_i_n : Printing only first  50 k-points.
              ixc          11
           jdtset        1    2
              kpt1     2.50000000E-01  5.00000000E-01  5.00000000E-01
              kpt2     0.00000000E+00  0.00000000E+00  0.00000000E+00
                       8.33333333E-02  0.00000000E+00  0.00000000E+00
                       1.66666667E-01  0.00000000E+00  0.00000000E+00
                       2.50000000E-01  0.00000000E+00  0.00000000E+00
                       3.33333333E-01  0.00000000E+00  0.00000000E+00
                       4.16666667E-01  0.00000000E+00  0.00000000E+00
                       5.00000000E-01  0.00000000E+00  0.00000000E+00
                       4.72222222E-01  5.55555555E-02  0.00000000E+00
                       4.44444444E-01  1.11111111E-01  0.00000000E+00
                       4.16666667E-01  1.66666667E-01  0.00000000E+00
                       3.88888889E-01  2.22222222E-01  0.00000000E+00
                       3.61111111E-01  2.77777778E-01  0.00000000E+00
                       3.33333333E-01  3.33333333E-01  0.00000000E+00
                       2.77777778E-01  2.77777778E-01  0.00000000E+00
                       2.22222222E-01  2.22222222E-01  0.00000000E+00
                       1.66666667E-01  1.66666667E-01  0.00000000E+00
                       1.11111111E-01  1.11111111E-01  0.00000000E+00
                       5.55555555E-02  5.55555555E-02  0.00000000E+00
                       0.00000000E+00  0.00000000E+00  0.00000000E+00
                       0.00000000E+00  0.00000000E+00  8.33333333E-02
                       0.00000000E+00  0.00000000E+00  1.66666667E-01
                       0.00000000E+00  0.00000000E+00  2.50000000E-01
                       0.00000000E+00  0.00000000E+00  3.33333333E-01
                       0.00000000E+00  0.00000000E+00  4.16666667E-01
                       0.00000000E+00  0.00000000E+00  5.00000000E-01
                       8.33333333E-02  0.00000000E+00  5.00000000E-01
                       1.66666667E-01  0.00000000E+00  5.00000000E-01
                       2.50000000E-01  0.00000000E+00  5.00000000E-01
                       3.33333333E-01  0.00000000E+00  5.00000000E-01
                       4.16666667E-01  0.00000000E+00  5.00000000E-01
                       5.00000000E-01  0.00000000E+00  5.00000000E-01
                       4.72222222E-01  5.55555555E-02  5.00000000E-01
                       4.44444444E-01  1.11111111E-01  5.00000000E-01
                       4.16666667E-01  1.66666667E-01  5.00000000E-01
                       3.88888889E-01  2.22222222E-01  5.00000000E-01
                       3.61111111E-01  2.77777778E-01  5.00000000E-01
                       3.33333333E-01  3.33333333E-01  5.00000000E-01
                       2.77777778E-01  2.77777778E-01  5.00000000E-01
                       2.22222222E-01  2.22222222E-01  5.00000000E-01
                       1.66666667E-01  1.66666667E-01  5.00000000E-01
                       1.11111111E-01  1.11111111E-01  5.00000000E-01
                       5.55555555E-02  5.55555555E-02  5.00000000E-01
                       0.00000000E+00  0.00000000E+00  5.00000000E-01
                       8.33333333E-02  0.00000000E+00  5.00000000E-01
                       1.66666667E-01  0.00000000E+00  5.00000000E-01
                       2.50000000E-01  0.00000000E+00  5.00000000E-01
                       3.33333333E-01  0.00000000E+00  5.00000000E-01
                       4.16666667E-01  0.00000000E+00  5.00000000E-01
                       5.00000000E-01  0.00000000E+00  5.00000000E-01
                       5.00000000E-01  0.00000000E+00  4.16666667E-01
                       outvar_i_n : Printing only first  50 k-points.
           kptopt1          1
           kptopt2        -11
         kptrlatt        2    0    0      0    1    0      0    0    1
          kptrlen1     2.35406981E+01
          kptrlen2     3.00000000E+01
P           mkmem1          1
P           mkmem2          3
            natom          69
            nband1        214
            nband2        260
           nbdbuf1          0
           nbdbuf2         50
           ndtset           2
            ngfft          60     144     144
          ngfftdg          96     216     216
             nkpt1          1
             nkpt2         67
-          npband1          2
-          npband2          1
-           npfft1         12
-           npfft2          1
-           npkpt1          1
-           npkpt2         24
            nstep1        300
            nstep2        100
             nsym           1
           ntypat           5
              occ      2.000000  2.000000  2.000000  2.000000  2.000000  2.000000
                       2.000000  2.000000  2.000000  2.000000  2.000000  2.000000
                       2.000000  2.000000  2.000000  2.000000  2.000000  2.000000
                       2.000000  2.000000  2.000000  2.000000  2.000000  2.000000
                       2.000000  2.000000  2.000000  2.000000  2.000000  2.000000
                       2.000000  2.000000  2.000000  2.000000  2.000000  2.000000
                       2.000000  2.000000  2.000000  2.000000  2.000000  2.000000
                       2.000000  2.000000  2.000000  2.000000  2.000000  2.000000
                       2.000000  2.000000  2.000000  2.000000  2.000000  2.000000
                       2.000000  2.000000  2.000000  2.000000  2.000000  2.000000
                       2.000000  2.000000  2.000000  2.000000  2.000000  2.000000
                       2.000000  2.000000  2.000000  2.000000  2.000000  2.000000
                       2.000000  2.000000  2.000000  2.000000  2.000000  2.000000
                       2.000000  2.000000  2.000000  2.000000  2.000000  2.000000
                       2.000000  2.000000  2.000000  2.000000  2.000000  2.000000
                       2.000000  2.000000  2.000000  2.000000  2.000000  2.000000
                       2.000000  2.000000  2.000000  2.000000  2.000000  2.000000
                       2.000000  2.000000  2.000000  2.000000  2.000000  2.000000
                       2.000000  2.000000  2.000000  2.000000  2.000000  2.000000
                       2.000000  2.000000  2.000000  2.000000  2.000000  2.000000
                       2.000000  2.000000  2.000000  2.000000  2.000000  2.000000
                       2.000000  2.000000  2.000000  2.000000  2.000000  2.000000
                       2.000000  2.000000  2.000000  2.000000  2.000000  2.000000
                       2.000000  2.000000  2.000000  2.000000  2.000000  2.000000
                       2.000000  2.000000  2.000000  2.000000  2.000000  2.000000
                       2.000000  2.000000  2.000000  2.000000  2.000000  2.000000
                       2.000000  2.000000  2.000000  2.000000  2.000000  2.000000
                       2.000000  2.000000  2.000000  2.000000  2.000000  2.000000
                       2.000000  2.000000  2.000000  2.000000  2.000000  2.000000
                       2.000000  2.000000  2.000000  2.000000  2.000000  2.000000
[...]
                       2.4169027775E+00  6.0084337705E+00  8.1732771811E+00
                       2.4125629939E+00  9.8213690650E+00  1.4796036819E+01
                       2.4055407502E+00  2.1926511877E+00  1.5582596894E+00
                       2.4059591945E+00  7.8875271949E+00  1.0546712326E+01
                       2.4168463905E+00  2.5499358803E-01  1.0547289105E+01
                       2.4120610146E+00  4.0842421014E+00  3.9324797171E+00
                       2.6620983958E+00  7.6346914551E+00  8.8166546092E+00
                       2.6619694651E+00 -7.3246728884E-04  8.8170766617E+00
                       2.6617644923E+00  3.8173329908E+00  2.2040828004E+00
                       3.5544135193E+00 -3.2989427143E-04  4.4086814214E+00
                       3.5700474534E+00  3.8167039730E+00  1.1021218392E+01
                       3.4535927275E+00  7.6350051324E+00  4.4079881876E+00
                       2.5023115293E+00  1.0342324924E+01  8.7022356064E+00
                       2.5153049162E+00  2.7116198492E+00  8.7136714168E+00
                       2.5397257285E+00  6.5283965283E+00  1.5308483189E+01
                       2.5025313325E+00  9.9987608367E+00  1.3141081101E+01
                       2.5155068807E+00  2.3703726506E+00  1.3132463415E+01
                       2.5395445373E+00  6.1734046464E+00  6.5283616519E+00
                       2.5020870440E+00  2.5623623978E+00  4.6065230760E+00
                       2.5155290779E+00  6.3678358457E+00  1.1217721885E+01
                       2.5399197829E+00  1.0200415057E+01  1.7838920342E+01
                       3.7099166411E+00  8.7428375923E+00  1.1127421463E+01
                       3.7266697642E+00  1.1069080677E+00  1.1123867180E+01
                       3.7286125459E+00  4.9186676582E+00  4.5109535252E+00
                       3.7287036034E+00  9.0823337697E+00  6.7089817159E+00
                       3.7095607421E+00  1.4468849763E+00  6.7015223661E+00
                       3.7267598060E+00  5.2605652665E+00  1.3316729421E+01
                       3.7266124804E+00  5.0829200435E+00  8.6227008334E+00
                       3.7289875658E+00  8.9029456217E+00  1.5229395449E+01
                       3.7093656411E+00  1.2618614722E+00  2.0085832792E+00
                       1.0380477551E+00  8.9224882977E+00  6.9246467965E+00
                       1.0186695518E+00  1.3142705541E+00  6.9598308332E+00
                       1.0271727422E+00  5.1305121499E+00  1.3574895190E+01
                       1.0269066516E+00  5.3712937068E+00  8.6057278530E+00
                       1.0382216920E+00  9.1694491353E+00  1.5259465263E+01
                       1.0183204954E+00  1.5516825600E+00  1.9936842618E+00
                       1.0188060027E+00  8.5852191350E+00  1.0884104947E+01
                       1.0268635898E+00  9.4812946826E-01  1.0882831903E+01
                       1.0377680466E+00  4.8116507937E+00  4.2653866487E+00
                       5.1959546799E+00  1.0145140429E+01  1.2882760205E+01
                       5.2095387694E+00  2.5052607980E+00  1.2883033791E+01
                       5.2334492230E+00  6.3879567575E+00  6.1779984507E+00
                       5.1956572284E+00  2.2656501026E+00  4.6094412223E+00
                       5.2096843769E+00  6.0845793372E+00  1.1226131730E+01
                       5.2339444522E+00  9.7899413326E+00  1.7828769448E+01
                       5.1959536050E+00  1.0493059246E+01  8.9575075078E+00
                       5.2095451943E+00  2.8603958227E+00  8.9545568537E+00
                       5.2338717199E+00  6.7246987427E+00  1.5668735641E+01
            xcart      1.0589466743E+00  1.4427502394E+01  8.3295124563E+00
                      -1.1496007047E-02 -4.1330610440E-02 -2.0653687486E-02
                      -1.1124069045E-02  7.2516729310E+00  1.2470406959E+01
                      -1.0552165063E-02  1.4429072701E+01  2.5037727390E+01
                       1.0642719195E+01  1.4441169974E+01  1.6639975646E+01
                       1.0642431141E+01 -2.6092328089E-02  1.6661360411E+01
                       1.0642224773E+01  7.2261410663E+00  4.1877245580E+00
                       1.1165292460E+00 -1.0944936234E-03  8.3308668255E+00
                       1.1383811912E+00  7.2120322523E+00  2.0826741518E+01
                       7.1972255315E+00  1.9052818823E+01  2.2883497662E+01
                       7.2274112299E+00  4.6253460130E+00  2.2880154653E+01
                       7.2032794787E+00  1.1863356198E+01  1.0332472534E+01
                       7.1965175569E+00  3.0754540612E+00  9.5440129526E+00
                       7.2275570378E+00  1.0283919399E+01  2.2041210029E+01
                       7.2041489482E+00  1.7442113465E+01  3.4542831068E+01
                       7.1971518788E+00  2.1153910729E+01  1.7555016378E+01
                       7.2273512004E+00  6.7287283863E+00  1.7559849420E+01
                       7.2040613300E+00  1.3974398460E+01  3.0100426455E+01
                       4.5586475591E+00  1.7003488241E+01  1.4590669112E+01
                       4.5462698282E+00  2.5906345636E+00  1.4612892988E+01
                       4.5676691588E+00  9.8009656912E+00  2.7104357303E+01
                       4.5672843392E+00  1.1354294314E+01  1.5445255481E+01
                       4.5590833369E+00  1.8559697783E+01  2.7960457440E+01
                       4.5458132194E+00  4.1435102498E+00  2.9446840569E+00
                       4.5466039645E+00  1.4905266264E+01  1.9930397899E+01
                       4.5671777834E+00  4.8186804701E-01  1.9931487852E+01
                       4.5581347334E+00  7.7180990320E+00  7.4313096884E+00
                       5.0306369069E+00  1.4427475959E+01  1.6661062620E+01
                       5.0303932631E+00 -1.3841625772E-03  1.6661860183E+01
                       5.0300059207E+00  7.2137139107E+00  4.1651128670E+00
                       6.7168681145E+00 -6.2340982581E-04  8.3312004937E+00
                       6.7464119683E+00  7.2125252393E+00  2.0827084411E+01
                       6.5263444295E+00  1.4428068723E+01  8.3298904716E+00
                       4.7286834895E+00  1.9544161683E+01  1.6444842040E+01
                       4.7532374324E+00  5.1242188914E+00  1.6466452590E+01
                       4.7993860796E+00  1.2336881525E+01  2.8928840738E+01
                       4.7290988574E+00  1.8894919650E+01  2.4833044372E+01
                       4.7536190900E+00  4.4793551426E+00  2.4816759305E+01
                       4.7990436777E+00  1.1666044089E+01  1.2336815619E+01
                       4.7282592738E+00  4.8421631851E+00  8.7050670384E+00
                       4.7536610365E+00  1.2033465808E+01  2.1198422197E+01
                       4.7997527891E+00  1.9275990900E+01  3.3710673954E+01
                       7.0107264276E+00  1.6521568674E+01  2.1027779131E+01
                       7.0423852420E+00  2.0917531023E+00  2.1021062508E+01
                       7.0460565673E+00  9.2949348127E+00  8.5244667609E+00
                       7.0462286411E+00  1.7163123472E+01  1.2678138074E+01
                       7.0100538759E+00  2.7342163510E+00  1.2664041945E+01
                       7.0425553963E+00  9.9410276579E+00  2.5164971592E+01
                       7.0422769914E+00  9.6053268376E+00  1.6294543101E+01
                       7.0467652523E+00  1.6824129001E+01  2.8779386568E+01
                       7.0096851884E+00  2.3845726001E+00  3.7956723128E+00
                       1.9616259700E+00  1.6861059307E+01  1.3085686012E+01
                       1.9250064729E+00  2.4836114118E+00  1.3152174206E+01
                       1.9410751738E+00  9.6952628848E+00  2.5652834192E+01
                       1.9405723356E+00  1.0150274085E+01  1.6262468816E+01
                       1.9619546631E+00  1.7327747655E+01  2.8836210282E+01
                       1.9243468519E+00  2.9322550835E+00  3.7675172502E+00
                       1.9252643277E+00  1.6223712956E+01  2.0567977552E+01
                       1.9404909606E+00  1.7917050335E+00  2.0565571847E+01
                       1.9610973975E+00  9.0927022472E+00  8.0604126170E+00
                       9.8189313439E+00  1.9171536991E+01  2.4344888623E+01
                       9.8446015528E+00  4.7342567996E+00  2.4345405626E+01
                       9.8897857618E+00  1.2071488820E+01  1.1674725121E+01
                       9.8183692421E+00  4.2814582068E+00  8.7105815357E+00
                       9.8448767111E+00  1.1498188581E+01  2.1214314502E+01
                       9.8907216095E+00  1.8500307976E+01  3.3691491544E+01
                       9.8189293127E+00  1.9829008270E+01  1.6927236023E+01
                       9.8446136941E+00  5.4053647365E+00  1.6921660095E+01
                       9.8905841653E+00  1.2707838950E+01  2.9609619210E+01
             xred      8.9918140200E-02  6.6664723130E-01  3.1483933581E-06
                      -9.7655981124E-04 -1.9097278000E-03  1.2834451077E-04
                      -9.9192443264E-04  3.3511272650E-01  3.3142660040E-01
                      -9.9028787755E-04  6.6679412940E-01  6.6844618560E-01
                       9.0412603240E-01  6.6730478250E-01  3.3217287040E-01
                       9.0412851110E-01 -1.1440890000E-03  6.6719805420E-01
                       9.0413074170E-01  3.3388525760E-01  6.2626119824E-04
                       9.4837245000E-02 -1.5284070266E-05  3.3333378400E-01
                       9.6646941900E-02  3.3331652090E-01  6.6666964840E-01
                       6.1137420360E-01  8.8041361700E-01  4.7545111080E-01
                       6.1396570110E-01  2.1380304780E-01  8.0856786670E-01
                       6.1193547340E-01  5.4817492320E-01  1.3936211040E-01
                       6.1137949660E-01  1.4213307300E-01  3.1080252570E-01
                       6.1396976480E-01  4.7524949700E-01  6.4429896070E-01
                       6.1193429040E-01  8.0604325290E-01  9.7913361980E-01
                       6.1137824980E-01  9.7746964650E-01  2.1373235310E-01
                       6.1397087860E-01  3.1096494240E-01  5.4712331840E-01
                       6.1194518070E-01  6.4580063190E-01  8.8149601690E-01
                       3.8722856990E-01  7.8569236440E-01  1.9100180850E-01
                       3.8620381490E-01  1.1975741920E-01  5.2480382550E-01
                       3.8797507500E-01  4.5296003590E-01  8.5802780970E-01
                       3.8797060900E-01  5.2467934510E-01  3.5567986770E-01
                       3.8722699290E-01  8.5765441900E-01  6.8996741490E-01
                       3.8619327490E-01  1.9145576100E-01  2.2101979600E-02
                       3.8619501610E-01  6.8876900020E-01  4.5310428630E-01
                       3.8796987610E-01  2.2346724300E-02  7.8630429180E-01
                       3.8722144960E-01  3.5663658490E-01  1.1904020430E-01
                       4.2732771140E-01  6.6667821510E-01  3.3333732410E-01
                       4.2733394640E-01  3.5972011191E-06  6.6665180890E-01
                       4.2732093260E-01  3.3331703320E-01  1.3114139415E-05
                       5.7063782140E-01  4.3427853262E-07  3.3333178510E-01
                       5.7310101700E-01  3.3333324300E-01  6.6666750650E-01
                       5.5442413930E-01  6.6666749420E-01  8.2980647531E-07
                       4.0166500120E-01  9.0309020680E-01  2.0649990630E-01
                       4.0377794830E-01  2.3682767180E-01  5.4044110200E-01
                       4.0765196500E-01  5.7013785990E-01  8.7244790510E-01
                       4.0167910750E-01  8.7312921020E-01  5.5709964100E-01
                       4.0378928360E-01  2.0706880460E-01  8.8942354110E-01
                       4.0766842510E-01  5.3906964240E-01  2.2411330910E-01
                       4.0167707090E-01  2.2376152950E-01  2.3643110280E-01
                       4.0378840510E-01  5.5608495240E-01  5.7017026120E-01
                       4.0765739920E-01  8.9077513140E-01  9.0348228300E-01
                       5.9553906000E-01  7.6345118180E-01  4.5967352580E-01
                       5.9825572570E-01  9.6732350700E-02  7.9270941960E-01
                       5.9858755510E-01  4.2949519640E-01  1.2635203380E-01
                       5.9857639580E-01  7.9305712560E-01  1.1079412160E-01
                       5.9552998960E-01  1.2638030970E-01  4.4351383940E-01
                       5.9824446470E-01  4.5942032520E-01  7.7719781490E-01
                       5.9824512090E-01  4.4387066610E-01  4.3005524380E-01
                       5.9857963110E-01  7.7746466990E-01  7.6281868140E-01
                       5.9552299600E-01  1.1018643710E-01  9.6775699600E-02
                       1.6659185290E-01  7.7910775550E-01  1.3408092830E-01
                       1.6350735140E-01  1.1480892790E-01  4.6883611990E-01
                       1.6482569820E-01  4.4807259620E-01  8.0239751990E-01
                       1.6480719870E-01  4.6905491360E-01  4.1618868290E-01
                       1.6657685590E-01  8.0073973200E-01  7.5346344580E-01
                       1.6347552840E-01  1.3549706360E-01  8.3002750300E-02
                       1.6348380850E-01  7.4969246150E-01  4.4816136500E-01
                       1.6480440100E-01  8.2872371100E-02  7.8142038690E-01
                       1.6657486500E-01  4.2015465270E-01  1.1246099670E-01
                       8.3410823430E-01  8.8590247020E-01  5.3117557390E-01
                       8.3631610720E-01  2.1883878010E-01  8.6467330260E-01
                       8.4017505450E-01  5.5779451210E-01  1.8825459370E-01
                       8.3413001750E-01  1.9784910410E-01  2.4959902050E-01
                       8.3633521650E-01  5.3134744140E-01  5.8316604480E-01
                       8.4018378050E-01  8.5492970270E-01  9.2062773380E-01
                       8.3412663820E-01  9.1624794380E-01  2.1921645130E-01
                       8.3633570600E-01  2.4981429850E-01  5.5215542410E-01
                       8.4019381510E-01  5.8727515130E-01  8.9111259170E-01
            znucl       63.00000   56.00000   14.00000    7.00000    8.00000

- Timing analysis has been suppressed with timopt=0

 Suggested references for the acknowledgment of ABINIT usage.

 [1] Large scale ab initio calculations based on three levels of parallelization
 F. Bottin, S. Leroux, A. Knyazev, G. Zerah, Comput. Mat. Science 42, 329, (2008).
 Comment : in case paral_kgb is non-zero. Strong suggestion to cite this paper in your publications.

 [2] Implementation of the Projector Augmented-Wave Method in the ABINIT code.
 M. Torrent, F. Jollet, F. Bottin, G. Zerah, and X. Gonze Comput. Mat. Science 42, 337, (2008).
 Comment : PAW calculations. Strong suggestion to cite this paper.

 [3] ABINIT : First-principles approach of materials and nanosystem properties.
 X. Gonze, B. Amadon, P.-M. Anglade, J.-M. Beuken, F. Bottin, P. Boulanger, F. Bruneval,
 D. Caliste, R. Caracas, M. Cote, T. Deutsch, L. Genovese, Ph. Ghosez, M. Giantomassi
 S. Goedecker, D.R. Hamann, P. Hermet, F. Jollet, G. Jomard, S. Leroux, M. Mancini, S. Mazevet,
 M.J.T. Oliveira, G. Onida, Y. Pouillon, T. Rangel, G.-M. Rignanese, D. Sangalli, R. Shaltaf,
 M. Torrent, M.J. Verstraete, G. Zerah, J.W. Zwanziger
 Computer Phys. Comm. 180, 2582-2615 (2009).
 Comment : the third generic paper describing the ABINIT project.
 Note that a version of this paper, that is not formatted for Computer Phys. Comm.
 The licence allows the authors to put it on the Web.

 [4] A brief introduction to the ABINIT software package.
 X. Gonze, G.-M. Rignanese, M. Verstraete, J.-M. Beuken, Y. Pouillon, R. Caracas, F. Jollet,
 M. Torrent, G. Zerah, M. Mikami, Ph. Ghosez, M. Veithen, J.-Y. Raty, V. Olevano, F. Bruneval,
 L. Reining, R. Godby, G. Onida, D.R. Hamann, and D.C. Allan.
 Z. Kristallogr. 220, 558-562 (2005).
 Comment : the second generic paper describing the ABINIT project. Note that this paper
 should be cited especially if you are using the GW part of ABINIT, as several authors
 of this part are not in the list of authors of the first or third paper.
 Note that it should not redistributed (Copyright by Oldenburg Wissenshaftverlag,
 the licence allows the authors to put it on the Web).

 And optionally :

 [5] First-principles computation of material properties : the ABINIT software project.
 X. Gonze, J.-M. Beuken, R. Caracas, F. Detraux, M. Fuchs, G.-M. Rignanese, L. Sindic,
 M. Verstraete, G. Zerah, F. Jollet, M. Torrent, A. Roy, M. Mikami, Ph. Ghosez, J.-Y. Raty, D.C. Allan.
 Comment : the original paper describing the ABINIT project.
-

 Calculation completed.
.Delivered    6 WARNINGs and   0 COMMENTs to log file.