.Version 7.8.2 of ABINIT

 ABINIT is a project of the Universite Catholique de Louvain,
 Corning Inc. and other collaborators, see ~abinit/doc/developers/contributors.txt .
 Please read ~abinit/doc/users/acknowledgments.html for suggested
 acknowledgments of the ABINIT effort.

.Starting date : Tue  2 Sep 2014.
- ( at 00h14 )

- input  file    -> p11.in
- output file    -> BMTHGH75rphonon_dff_nb64_new.out
- root for input  files -> t1xi
- root for output files -> t1xo

 DATASET    1 : space group P-3 m 1 (#164); Bravais hP (primitive hexag.)
   intxc =         0  ionmov =         0    iscf =         5 xclevel =         1
  lmnmax =         6   lnmax =         6   mband =        64  mffmem =         1
P  mgfft =       108   mkmem =         1 mpssoang=         4     mpw =     41394
  mqgrid =      5167   natom =        15    nfft =    874800    nkpt =        10
  nloalg =         4  nspden =         1 nspinor =         1  nsppol =         1
    nsym =        12  n1xccc =         0  ntypat =         4  occopt =         1
  Rough estimation (10% accuracy) of disk space for files :

 DATASET    2 : space group P-3 m 1 (#164); Bravais hP (primitive hexag.)
   intxc =         0    iscf =         5 xclevel =         1  lmnmax =         6
   lnmax =         6   mband =        64  mffmem =         1   mgfft =       108
P  mkmem =         2  mkqmem =         2  mk1mem =         2 mpssoang=         4
     mpw =     41394  mqgrid =      5167   natom =        15    nfft =    874800
    nkpt =        32  nloalg =         4  nspden =         1 nspinor =         1
  nsppol =         1    nsym =        12  n1xccc =         0  ntypat =         4
  occopt =         1
  Rough estimation (10% accuracy) of disk space for files :

------------- Echo of variables that govern the present computation ------------
-
- outvars: echo of selected default values
-   accesswff0 =  0 , fftalg0 =112 , wfoptalg0 =  0
-
- outvars: echo of global parameters not present in the input file
-  max_nthreads =    0
-
 -outvars: echo values of preprocessed input variables --------
            acell      1.0778170898E+01  1.0778170898E+01  1.3252564438E+01 Bohr
              amu      1.37327000E+02  2.43050000E+01  1.80947900E+02
                       1.59994000E+01
           diemac      4.00000000E+00
             ecut      7.50000000E+01 Hartree
-          fftalg         112
           getwfk1          0
           getwfk2          1
           irdwfk1          1
           irdwfk2          0
             iscf           5
           jdtset        1    2
              kpt1     0.00000000E+00  0.00000000E+00  1.25000000E-01
                       2.50000000E-01  0.00000000E+00  1.25000000E-01
                       5.00000000E-01  0.00000000E+00  1.25000000E-01
                      -2.50000000E-01  0.00000000E+00  1.25000000E-01
                       2.50000000E-01  2.50000000E-01  1.25000000E-01
                       0.00000000E+00  0.00000000E+00  3.75000000E-01
                       2.50000000E-01  0.00000000E+00  3.75000000E-01
                       5.00000000E-01  0.00000000E+00  3.75000000E-01
                      -2.50000000E-01  0.00000000E+00  3.75000000E-01
                       2.50000000E-01  2.50000000E-01  3.75000000E-01
              kpt2     0.00000000E+00  0.00000000E+00  1.25000000E-01
                       2.50000000E-01  0.00000000E+00  1.25000000E-01
                       5.00000000E-01  0.00000000E+00  1.25000000E-01
                      -2.50000000E-01  0.00000000E+00  1.25000000E-01
                       0.00000000E+00  2.50000000E-01  1.25000000E-01
                       2.50000000E-01  2.50000000E-01  1.25000000E-01
                       5.00000000E-01  2.50000000E-01  1.25000000E-01
                      -2.50000000E-01  2.50000000E-01  1.25000000E-01
                       0.00000000E+00  5.00000000E-01  1.25000000E-01
                       2.50000000E-01  5.00000000E-01  1.25000000E-01
                       5.00000000E-01  5.00000000E-01  1.25000000E-01
                      -2.50000000E-01  5.00000000E-01  1.25000000E-01
                       0.00000000E+00 -2.50000000E-01  1.25000000E-01
                       2.50000000E-01 -2.50000000E-01  1.25000000E-01
                       5.00000000E-01 -2.50000000E-01  1.25000000E-01
                      -2.50000000E-01 -2.50000000E-01  1.25000000E-01
                       0.00000000E+00  0.00000000E+00  3.75000000E-01
                       2.50000000E-01  0.00000000E+00  3.75000000E-01
                       5.00000000E-01  0.00000000E+00  3.75000000E-01
                      -2.50000000E-01  0.00000000E+00  3.75000000E-01
                       0.00000000E+00  2.50000000E-01  3.75000000E-01
                       2.50000000E-01  2.50000000E-01  3.75000000E-01
                       5.00000000E-01  2.50000000E-01  3.75000000E-01
                      -2.50000000E-01  2.50000000E-01  3.75000000E-01
                       0.00000000E+00  5.00000000E-01  3.75000000E-01
                       2.50000000E-01  5.00000000E-01  3.75000000E-01
                       5.00000000E-01  5.00000000E-01  3.75000000E-01
                      -2.50000000E-01  5.00000000E-01  3.75000000E-01
                       0.00000000E+00 -2.50000000E-01  3.75000000E-01
                       2.50000000E-01 -2.50000000E-01  3.75000000E-01
                       5.00000000E-01 -2.50000000E-01  3.75000000E-01
                      -2.50000000E-01 -2.50000000E-01  3.75000000E-01
           kptopt1          1
           kptopt2          2
         kptrlatt        4    0    0      0    4    0      0    0    4
          kptrlen      4.31126836E+01
P           mkmem1          1
P           mkmem2          2
P          mkqmem1          1
P          mkqmem2          2
P          mk1mem1          1
P          mk1mem2          2
            natom          15
            nband1         64
            nband2         64
           ndtset           2
            ngfft          90      90     108
             nkpt1         10
             nkpt2         32
             nqpt1          0
             nqpt2          1
            nstep         100
             nsym          12
           ntypat           4
              occ1     2.000000  2.000000  2.000000  2.000000  2.000000  2.000000
                       2.000000  2.000000  2.000000  2.000000  2.000000  2.000000
                       2.000000  2.000000  2.000000  2.000000  2.000000  2.000000
                       2.000000  2.000000  2.000000  2.000000  2.000000  2.000000
                       2.000000  2.000000  2.000000  2.000000  2.000000  2.000000
                       2.000000  2.000000  2.000000  2.000000  2.000000  2.000000
                       2.000000  2.000000  2.000000  2.000000  2.000000  2.000000
                       2.000000  2.000000  2.000000  2.000000  2.000000  2.000000
                       0.000000  0.000000  0.000000  0.000000  0.000000  0.000000
                       0.000000  0.000000  0.000000  0.000000  0.000000  0.000000
                       0.000000  0.000000  0.000000  0.000000
              occ2     2.000000  2.000000  2.000000  2.000000  2.000000  2.000000
                       2.000000  2.000000  2.000000  2.000000  2.000000  2.000000
                       2.000000  2.000000  2.000000  2.000000  2.000000  2.000000
                       2.000000  2.000000  2.000000  2.000000  2.000000  2.000000
                       2.000000  2.000000  2.000000  2.000000  2.000000  2.000000
                       2.000000  2.000000  2.000000  2.000000  2.000000  2.000000
                       2.000000  2.000000  2.000000  2.000000  2.000000  2.000000
                       2.000000  2.000000  2.000000  2.000000  2.000000  2.000000
                       0.000000  0.000000  0.000000  0.000000  0.000000  0.000000
                       0.000000  0.000000  0.000000  0.000000  0.000000  0.000000
                       0.000000  0.000000  0.000000  0.000000
        optdriver1          0
        optdriver2          1
        optforces1          1
        optforces2          2
          rfatpol1          1       1
          rfatpol2          1      15
            rfdir1          0       0       0
            rfdir2          1       1       1
           rfphon1          0
           rfphon2          1
            rprim      1.0000000000E+00  0.0000000000E+00  0.0000000000E+00
                      -5.0000000000E-01  8.6602540378E-01  0.0000000000E+00
                       0.0000000000E+00  0.0000000000E+00  1.0000000000E+00
           shiftk      0.00000000E+00  0.00000000E+00  5.00000000E-01
          spgroup         164
           symrel      1  0  0   0  1  0   0  0  1      -1  0  0   0 -1  0   0  0 -1
                      -1  0  0   1  1  0   0  0  1       1  0  0  -1 -1  0   0  0 -1
                       0  1  0  -1 -1  0   0  0  1       0 -1  0   1  1  0   0  0 -1
                       0 -1  0  -1  0  0   0  0  1       0  1  0   1  0  0   0  0 -1
                      -1 -1  0   1  0  0   0  0  1       1  1  0  -1  0  0   0  0 -1
                       1  1  0   0 -1  0   0  0  1      -1 -1  0   0  1  0   0  0 -1
           toldff1     1.00000000E-08
           toldff2     0.00000000E+00
           tolvrs1     0.00000000E+00
           tolvrs2     1.00000000E-10
            typat      1  1  1  2  3  3  4  4  4  4  4  4  4  4  4
              wtk1       0.03125    0.09375    0.09375    0.09375    0.18750    0.03125
                         0.09375    0.09375    0.09375    0.18750
              wtk2       0.03125    0.03125    0.03125    0.03125    0.03125    0.03125
                         0.03125    0.03125    0.03125    0.03125    0.03125    0.03125
                         0.03125    0.03125    0.03125    0.03125    0.03125    0.03125
                         0.03125    0.03125    0.03125    0.03125    0.03125    0.03125
                         0.03125    0.03125    0.03125    0.03125    0.03125    0.03125
                         0.03125    0.03125
           xangst      0.0000000000E+00  0.0000000000E+00  0.0000000000E+00
                      -2.8517714163E-11  3.2929532809E+00  4.6649131817E+00
                       2.8517811948E+00  1.6464766404E+00  2.3480418742E+00
                       0.0000000000E+00  0.0000000000E+00  3.5064775280E+00
                      -2.8517714163E-11  3.2929532809E+00  1.2704476148E+00
                       2.8517811948E+00  1.6464766404E+00  5.7425074412E+00
                      -1.4061179352E+00  4.1047758493E+00  2.3029452008E+00
                       0.0000000000E+00  1.6693081441E+00  2.3029452008E+00
                       1.4061179352E+00  4.1047758493E+00  2.3029452008E+00
                       1.4456632595E+00  8.3465407205E-01  4.7100098551E+00
                       4.2578991300E+00  8.3465407205E-01  4.7100098551E+00
                       2.8517811948E+00  3.2701217773E+00  4.7100098551E+00
                       2.8517811948E+00  0.0000000000E+00  0.0000000000E+00
                      -1.4258905974E+00  2.4697149607E+00  0.0000000000E+00
                       1.4258905974E+00  2.4697149607E+00  0.0000000000E+00
[...]

 -outvars: echo values of variables after computation  --------
            acell      1.0778170898E+01  1.0778170898E+01  1.3252564438E+01 Bohr
              amu      1.37327000E+02  2.43050000E+01  1.80947900E+02
                       1.59994000E+01
           diemac      4.00000000E+00
             ecut      7.50000000E+01 Hartree
           etotal1    -2.3301701577E+02
           etotal2     2.4577106466E+01
            fcart1    -0.0000000000E+00  6.7762635780E-22  2.8234431575E-23
                      -4.9964789919E-29  6.7762632896E-22 -1.9420455211E-07
                      -4.9964789919E-29  6.7762644434E-22  1.9420455211E-07
                      -0.0000000000E+00  6.7762635780E-22  2.8234431575E-23
                      -1.2491197480E-29  6.7762630732E-22  1.0490290736E-06
                      -0.0000000000E+00  6.7762634338E-22 -1.0490290736E-06
                       1.5844000894E-05 -9.1475381813E-06  1.1210558404E-06
                      -0.0000000000E+00  1.8295076363E-05  1.1210558404E-06
                      -1.5844000894E-05 -9.1475381813E-06  1.1210558404E-06
                       1.5844000894E-05  9.1475381813E-06 -1.1210558404E-06
                      -1.5844000894E-05  9.1475381813E-06 -1.1210558404E-06
                      -0.0000000000E+00 -1.8295076363E-05 -1.1210558404E-06
                      -0.0000000000E+00  6.7762635780E-22  2.8234431575E-23
                      -0.0000000000E+00  6.7762635780E-22  2.8234431575E-23
                      -0.0000000000E+00  6.7762635780E-22  2.8234431575E-23
            fcart2     0.0000000000E+00  0.0000000000E+00  0.0000000000E+00
                       0.0000000000E+00  0.0000000000E+00  0.0000000000E+00
                       0.0000000000E+00  0.0000000000E+00  0.0000000000E+00
                       0.0000000000E+00  0.0000000000E+00  0.0000000000E+00
                       0.0000000000E+00  0.0000000000E+00  0.0000000000E+00
                       0.0000000000E+00  0.0000000000E+00  0.0000000000E+00
                       0.0000000000E+00  0.0000000000E+00  0.0000000000E+00
                       0.0000000000E+00  0.0000000000E+00  0.0000000000E+00
                       0.0000000000E+00  0.0000000000E+00  0.0000000000E+00
                       0.0000000000E+00  0.0000000000E+00  0.0000000000E+00
                       0.0000000000E+00  0.0000000000E+00  0.0000000000E+00
                       0.0000000000E+00  0.0000000000E+00  0.0000000000E+00
                       0.0000000000E+00  0.0000000000E+00  0.0000000000E+00
                       0.0000000000E+00  0.0000000000E+00  0.0000000000E+00
                       0.0000000000E+00  0.0000000000E+00  0.0000000000E+00
-          fftalg         112
           getwfk1          0
           getwfk2          1
           irdwfk1          1
           irdwfk2          0
             iscf           5
           jdtset        1    2
              kpt1     0.00000000E+00  0.00000000E+00  1.25000000E-01
                       2.50000000E-01  0.00000000E+00  1.25000000E-01
                       5.00000000E-01  0.00000000E+00  1.25000000E-01
                      -2.50000000E-01  0.00000000E+00  1.25000000E-01
                       2.50000000E-01  2.50000000E-01  1.25000000E-01
                       0.00000000E+00  0.00000000E+00  3.75000000E-01
                       2.50000000E-01  0.00000000E+00  3.75000000E-01
                       5.00000000E-01  0.00000000E+00  3.75000000E-01
                      -2.50000000E-01  0.00000000E+00  3.75000000E-01
                       2.50000000E-01  2.50000000E-01  3.75000000E-01
              kpt2     0.00000000E+00  0.00000000E+00  1.25000000E-01
                       2.50000000E-01  0.00000000E+00  1.25000000E-01
                       5.00000000E-01  0.00000000E+00  1.25000000E-01
                      -2.50000000E-01  0.00000000E+00  1.25000000E-01
                       0.00000000E+00  2.50000000E-01  1.25000000E-01
                       2.50000000E-01  2.50000000E-01  1.25000000E-01
                       5.00000000E-01  2.50000000E-01  1.25000000E-01
                      -2.50000000E-01  2.50000000E-01  1.25000000E-01
                       0.00000000E+00  5.00000000E-01  1.25000000E-01
                       2.50000000E-01  5.00000000E-01  1.25000000E-01
                       5.00000000E-01  5.00000000E-01  1.25000000E-01
                      -2.50000000E-01  5.00000000E-01  1.25000000E-01
                       0.00000000E+00 -2.50000000E-01  1.25000000E-01
                       2.50000000E-01 -2.50000000E-01  1.25000000E-01
                       5.00000000E-01 -2.50000000E-01  1.25000000E-01
                      -2.50000000E-01 -2.50000000E-01  1.25000000E-01
                       0.00000000E+00  0.00000000E+00  3.75000000E-01
                       2.50000000E-01  0.00000000E+00  3.75000000E-01
                       5.00000000E-01  0.00000000E+00  3.75000000E-01
                      -2.50000000E-01  0.00000000E+00  3.75000000E-01
                       0.00000000E+00  2.50000000E-01  3.75000000E-01
                       2.50000000E-01  2.50000000E-01  3.75000000E-01
                       5.00000000E-01  2.50000000E-01  3.75000000E-01
                      -2.50000000E-01  2.50000000E-01  3.75000000E-01
                       0.00000000E+00  5.00000000E-01  3.75000000E-01
                       2.50000000E-01  5.00000000E-01  3.75000000E-01
                       5.00000000E-01  5.00000000E-01  3.75000000E-01
                      -2.50000000E-01  5.00000000E-01  3.75000000E-01
                       0.00000000E+00 -2.50000000E-01  3.75000000E-01
                       2.50000000E-01 -2.50000000E-01  3.75000000E-01
                       5.00000000E-01 -2.50000000E-01  3.75000000E-01
                      -2.50000000E-01 -2.50000000E-01  3.75000000E-01
           kptopt1          1
           kptopt2          2
         kptrlatt        4    0    0      0    4    0      0    0    4
          kptrlen      4.31126836E+01
P           mkmem1          1
P           mkmem2          2
P          mkqmem1          1
P          mkqmem2          2
P          mk1mem1          1
P          mk1mem2          2
            natom          15
            nband1         64
            nband2         64
           ndtset           2
            ngfft          90      90     108
             nkpt1         10
             nkpt2         32
             nqpt1          0
             nqpt2          1
            nstep         100
             nsym          12
           ntypat           4
              occ1     2.000000  2.000000  2.000000  2.000000  2.000000  2.000000
                       2.000000  2.000000  2.000000  2.000000  2.000000  2.000000
                       2.000000  2.000000  2.000000  2.000000  2.000000  2.000000
                       2.000000  2.000000  2.000000  2.000000  2.000000  2.000000
                       2.000000  2.000000  2.000000  2.000000  2.000000  2.000000
                       2.000000  2.000000  2.000000  2.000000  2.000000  2.000000
                       2.000000  2.000000  2.000000  2.000000  2.000000  2.000000
                       2.000000  2.000000  2.000000  2.000000  2.000000  2.000000
                       0.000000  0.000000  0.000000  0.000000  0.000000  0.000000
                       0.000000  0.000000  0.000000  0.000000  0.000000  0.000000
                       0.000000  0.000000  0.000000  0.000000
              occ2     2.000000  2.000000  2.000000  2.000000  2.000000  2.000000
                       2.000000  2.000000  2.000000  2.000000  2.000000  2.000000
                       2.000000  2.000000  2.000000  2.000000  2.000000  2.000000
                       2.000000  2.000000  2.000000  2.000000  2.000000  2.000000
                       2.000000  2.000000  2.000000  2.000000  2.000000  2.000000
                       2.000000  2.000000  2.000000  2.000000  2.000000  2.000000
                       2.000000  2.000000  2.000000  2.000000  2.000000  2.000000
                       2.000000  2.000000  2.000000  2.000000  2.000000  2.000000
                       0.000000  0.000000  0.000000  0.000000  0.000000  0.000000
                       0.000000  0.000000  0.000000  0.000000  0.000000  0.000000
                       0.000000  0.000000  0.000000  0.000000
        optdriver1          0
        optdriver2          1
        optforces1          1
        optforces2          2
          rfatpol1          1       1
          rfatpol2          1      15
            rfdir1          0       0       0
            rfdir2          1       1       1
           rfphon1          0
           rfphon2          1
            rprim      1.0000000000E+00  0.0000000000E+00  0.0000000000E+00
                      -5.0000000000E-01  8.6602540378E-01  0.0000000000E+00
                       0.0000000000E+00  0.0000000000E+00  1.0000000000E+00
           shiftk      0.00000000E+00  0.00000000E+00  5.00000000E-01
          spgroup         164
           strten1     3.7385837684E-04  3.7385837698E-04  3.7698429480E-04
                       0.0000000000E+00  0.0000000000E+00  0.0000000000E+00
           strten2     0.0000000000E+00  0.0000000000E+00  0.0000000000E+00
                       0.0000000000E+00  0.0000000000E+00  0.0000000000E+00
           symrel      1  0  0   0  1  0   0  0  1      -1  0  0   0 -1  0   0  0 -1
                      -1  0  0   1  1  0   0  0  1       1  0  0  -1 -1  0   0  0 -1
                       0  1  0  -1 -1  0   0  0  1       0 -1  0   1  1  0   0  0 -1
                       0 -1  0  -1  0  0   0  0  1       0  1  0   1  0  0   0  0 -1
                      -1 -1  0   1  0  0   0  0  1       1  1  0  -1  0  0   0  0 -1
                       1  1  0   0 -1  0   0  0  1      -1 -1  0   0  1  0   0  0 -1
           toldff1     1.00000000E-08
           toldff2     0.00000000E+00
           tolvrs1     0.00000000E+00
           tolvrs2     1.00000000E-10
            typat      1  1  1  2  3  3  4  4  4  4  4  4  4  4  4
              wtk1       0.03125    0.09375    0.09375    0.09375    0.18750    0.03125
                         0.09375    0.09375    0.09375    0.18750
              wtk2       0.03125    0.03125    0.03125    0.03125    0.03125    0.03125
                         0.03125    0.03125    0.03125    0.03125    0.03125    0.03125
                         0.03125    0.03125    0.03125    0.03125    0.03125    0.03125
                         0.03125    0.03125    0.03125    0.03125    0.03125    0.03125
                         0.03125    0.03125    0.03125    0.03125    0.03125    0.03125
                         0.03125    0.03125
           xangst      0.0000000000E+00  0.0000000000E+00  0.0000000000E+00
                      -4.7000377687E-16  3.2929532809E+00  4.6649131817E+00
                       2.8517811948E+00  1.6464766405E+00  2.3480418742E+00
                       0.0000000000E+00  0.0000000000E+00  3.5064775280E+00
                      -4.7000377687E-16  3.2929532809E+00  1.2704476148E+00
                       2.8517811948E+00  1.6464766405E+00  5.7425074412E+00
                      -1.4061179352E+00  4.1047758493E+00  2.3029452008E+00
                       1.1750094422E-16  1.6693081441E+00  2.3029452008E+00
                       1.4061179352E+00  4.1047758493E+00  2.3029452008E+00
                       1.4456632595E+00  8.3465407205E-01  4.7100098551E+00
                       4.2578991300E+00  8.3465407205E-01  4.7100098551E+00
                       2.8517811948E+00  3.2701217773E+00  4.7100098551E+00
                       2.8517811948E+00  0.0000000000E+00  0.0000000000E+00
                      -1.4258905974E+00  2.4697149607E+00  0.0000000000E+00
                       1.4258905974E+00  2.4697149607E+00  0.0000000000E+00
            xcart      0.0000000000E+00  0.0000000000E+00  0.0000000000E+00
                      -8.8817841970E-16  6.2227798693E+00  8.8154083471E+00
                       5.3890854490E+00  3.1113899347E+00  4.4371560909E+00
                       0.0000000000E+00  0.0000000000E+00  6.6262822190E+00
                      -8.8817841970E-16  6.2227798693E+00  2.4007980581E+00
                       5.3890854490E+00  3.1113899347E+00  1.0851766380E+01
                      -2.6571778081E+00  7.7569021921E+00  4.3519357286E+00
                       2.2204460493E-16  3.1545352237E+00  4.3519357286E+00
                       2.6571778081E+00  7.7569021921E+00  4.3519357286E+00
                       2.7319076409E+00  1.5772676119E+00  8.9006287094E+00
                       8.0462632571E+00  1.5772676119E+00  8.9006287094E+00
                       5.3890854490E+00  6.1796345802E+00  8.9006287094E+00
                       5.3890854490E+00  0.0000000000E+00  0.0000000000E+00
                      -2.6945427245E+00  4.6670849020E+00  0.0000000000E+00
                       2.6945427245E+00  4.6670849020E+00  0.0000000000E+00
             xred      0.0000000000E+00  0.0000000000E+00  0.0000000000E+00
                       3.3333333333E-01  6.6666666667E-01  6.6518509594E-01
                       6.6666666667E-01  3.3333333333E-01  3.3481490406E-01
                       0.0000000000E+00  0.0000000000E+00  5.0000000000E-01
                       3.3333333333E-01  6.6666666667E-01  1.8115724465E-01
                       6.6666666667E-01  3.3333333333E-01  8.1884275535E-01
                       1.6897781431E-01  8.3102218569E-01  3.2838442318E-01
                       1.6897781431E-01  3.3795562862E-01  3.2838442318E-01
                       6.6204437138E-01  8.3102218569E-01  3.2838442318E-01
                       3.3795562862E-01  1.6897781431E-01  6.7161557682E-01
                       8.3102218569E-01  1.6897781431E-01  6.7161557682E-01
                       8.3102218569E-01  6.6204437138E-01  6.7161557682E-01
                       5.0000000000E-01  0.0000000000E+00  0.0000000000E+00
                       0.0000000000E+00  5.0000000000E-01  0.0000000000E+00
                       5.0000000000E-01  5.0000000000E-01  0.0000000000E+00
            znucl       56.00000   12.00000   73.00000    8.00000

- Timing analysis has been suppressed with timopt=0

 Suggested references for the acknowledgment of ABINIT usage.

 [1] First-principles responses of solids to atomic displacements and homogeneous electric fields:,
 implementation of a conjugate-gradient algorithm. X. Gonze, Phys. Rev. B55, 10337 (1997).
 Comment : Non-vanishing rfphon and/or rfelfd, in the norm-conserving case.

 [2] Dynamical matrices, Born effective charges, dielectric permittivity tensors, and ,
 interatomic force constants from density-functional perturbation theory,
 X. Gonze and C. Lee, Phys. Rev. B55, 10355 (1997).
 Comment : Non-vanishing rfphon and/or rfelfd, in the norm-conserving case.

 [3] ABINIT : First-principles approach of materials and nanosystem properties.
 X. Gonze, B. Amadon, P.-M. Anglade, J.-M. Beuken, F. Bottin, P. Boulanger, F. Bruneval,
 D. Caliste, R. Caracas, M. Cote, T. Deutsch, L. Genovese, Ph. Ghosez, M. Giantomassi
 S. Goedecker, D.R. Hamann, P. Hermet, F. Jollet, G. Jomard, S. Leroux, M. Mancini, S. Mazevet,
 M.J.T. Oliveira, G. Onida, Y. Pouillon, T. Rangel, G.-M. Rignanese, D. Sangalli, R. Shaltaf,
 M. Torrent, M.J. Verstraete, G. Zerah, J.W. Zwanziger
 Computer Phys. Comm. 180, 2582-2615 (2009).
 Comment : the third generic paper describing the ABINIT project.
 Note that a version of this paper, that is not formatted for Computer Phys. Comm.
 The licence allows the authors to put it on the Web.

 [4] A brief introduction to the ABINIT software package.
 X. Gonze, G.-M. Rignanese, M. Verstraete, J.-M. Beuken, Y. Pouillon, R. Caracas, F. Jollet,
 M. Torrent, G. Zerah, M. Mikami, Ph. Ghosez, M. Veithen, J.-Y. Raty, V. Olevano, F. Bruneval,
 L. Reining, R. Godby, G. Onida, D.R. Hamann, and D.C. Allan.
 Z. Kristallogr. 220, 558-562 (2005).
 Comment : the second generic paper describing the ABINIT project. Note that this paper
 should be cited especially if you are using the GW part of ABINIT, as several authors
 of this part are not in the list of authors of the first or third paper.
 Note that it should not redistributed (Copyright by Oldenburg Wissenshaftverlag,
 the licence allows the authors to put it on the Web).

 And optionally :

 [5] First-principles computation of material properties : the ABINIT software project.
 X. Gonze, J.-M. Beuken, R. Caracas, F. Detraux, M. Fuchs, G.-M. Rignanese, L. Sindic,
 M. Verstraete, G. Zerah, F. Jollet, M. Torrent, A. Roy, M. Mikami, Ph. Ghosez, J.-Y. Raty, D.C. Allan.
 Comment : the original paper describing the ABINIT project.
-

 Calculation completed.
.Delivered    0 WARNINGs and   4 COMMENTs to log file.