.Version 6.8.1  of ABINIT
.(sequential version, prepared for a x86_64_linux_gnu4.5 computer)

 ABINIT is a project of the Universite Catholique de Louvain,
 Corning Inc. and other collaborators, see ~abinit/doc/developers/contributors.txt .
 Please read ~abinit/doc/users/acknowledgments.html for suggested
 acknowledgments of the ABINIT effort.

.Starting date : Thu 10 Nov 2011.
- ( at 17h45 )

- input  file    -> b11.in
- output file    -> b11.out
- root for input  files -> b11i
- root for output files -> b11o

 Symmetries : the unit cell is not primitive
   intxc =         0  ionmov =         2    iscf =         7 xclevel =         1
  lmnmax =         1   lnmax =         1   mband =        22  mffmem =         1
P  mgfft =        72   mkmem =         8 mpssoang=         2     mpw =     17748
  mqgrid =      3235   natom =         8    nfft =    373248    nkpt =         8
  nloalg =         4  nspden =         1 nspinor =         1  nsppol =         1
    nsym =        32  n1xccc =      2501  ntypat =         3  occopt =         1
  Rough estimation (10% accuracy) of disk space for files :

------------- Echo of variables that govern the present computation ------------
-
- outvars: echo of selected default values
-   accesswff0 =  0 , fftalg0 =112 , wfoptalg0 =  0
-
- outvars: echo of global parameters not present in the input file
-   nproc =    1
-
 -outvars: echo values of preprocessed input variables --------
            acell      1.1360406667E+01  1.1360406667E+01  1.1360406667E+01 Bohr
              amu      7.26100000E+01  1.21753000E+02  1.27600000E+02
           diemac      2.00000000E+00
             ecut      4.00000000E+01 Hartree
           ionmov           2
              kpt     -2.50000000E-01  5.00000000E-01  0.00000000E+00
                       5.00000000E-01 -2.50000000E-01  0.00000000E+00
                      -2.50000000E-01 -2.50000000E-01  2.50000000E-01
                      -2.50000000E-01  0.00000000E+00  0.00000000E+00
                       5.00000000E-01  5.00000000E-01  2.50000000E-01
                      -2.50000000E-01  5.00000000E-01  5.00000000E-01
                       0.00000000E+00 -2.50000000E-01  0.00000000E+00
                       0.00000000E+00  5.00000000E-01  2.50000000E-01
          kptrlen      3.93536031E+01
         kptrlatt      2 -2  2  -2  2  2  -2 -2  2
P           mkmem           8
            natom           8
            nband          22
            ngfft          72      72      72
             nkpt           8
            nstep          15
             nsym          32
           ntypat           3
              occ      2.000000  2.000000  2.000000  2.000000  2.000000  2.000000
                       2.000000  2.000000  2.000000  2.000000  2.000000  2.000000
                       2.000000  2.000000  2.000000  2.000000  2.000000  2.000000
                       2.000000  2.000000  2.000000  0.000000
           shiftk      5.00000000E-01  5.00000000E-01  5.00000000E-01
           symrel      1  0  0   0  1  0   0  0  1       1  0  0   0  1  0   0  0  1
                      -1  0  0   0 -1  0   0  0 -1      -1  0  0   0 -1  0   0  0 -1
                      -1  0  0   0  1  0   0  0 -1      -1  0  0   0  1  0   0  0 -1
                       1  0  0   0 -1  0   0  0  1       1  0  0   0 -1  0   0  0  1
                      -1  0  0   0 -1  0   0  0  1      -1  0  0   0 -1  0   0  0  1
                       1  0  0   0  1  0   0  0 -1       1  0  0   0  1  0   0  0 -1
                       1  0  0   0 -1  0   0  0 -1       1  0  0   0 -1  0   0  0 -1
                      -1  0  0   0  1  0   0  0  1      -1  0  0   0  1  0   0  0  1
                       1  0  0   0  0  1   0  1  0       1  0  0   0  0  1   0  1  0
                      -1  0  0   0  0 -1   0 -1  0      -1  0  0   0  0 -1   0 -1  0
                      -1  0  0   0  0  1   0 -1  0      -1  0  0   0  0  1   0 -1  0
                       1  0  0   0  0 -1   0  1  0       1  0  0   0  0 -1   0  1  0
                      -1  0  0   0  0 -1   0  1  0      -1  0  0   0  0 -1   0  1  0
                       1  0  0   0  0  1   0 -1  0       1  0  0   0  0  1   0 -1  0
                       1  0  0   0  0 -1   0 -1  0       1  0  0   0  0 -1   0 -1  0
                      -1  0  0   0  0  1   0  1  0      -1  0  0   0  0  1   0  1  0
            tnons      0.0000000  0.0000000  0.0000000     0.0000000  0.5000000  0.5000000
                       0.0000000  0.0000000  0.0000000     0.0000000  0.5000000  0.5000000
                       0.0000000  0.0000000  0.0000000     0.0000000  0.5000000  0.5000000
                       0.0000000  0.0000000  0.0000000     0.0000000  0.5000000  0.5000000
                       0.0000000  0.0000000  0.0000000     0.0000000  0.5000000  0.5000000
                       0.0000000  0.0000000  0.0000000     0.0000000  0.5000000  0.5000000
                       0.0000000  0.0000000  0.0000000     0.0000000  0.5000000  0.5000000
                       0.0000000  0.0000000  0.0000000     0.0000000  0.5000000  0.5000000
                       0.0000000  0.0000000  0.0000000     0.0000000  0.5000000  0.5000000
                       0.0000000  0.0000000  0.0000000     0.0000000  0.5000000  0.5000000
                       0.0000000  0.0000000  0.0000000     0.0000000  0.5000000  0.5000000
                       0.0000000  0.0000000  0.0000000     0.0000000  0.5000000  0.5000000
                       0.0000000  0.0000000  0.0000000     0.0000000  0.5000000  0.5000000
                       0.0000000  0.0000000  0.0000000     0.0000000  0.5000000  0.5000000
                       0.0000000  0.0000000  0.0000000     0.0000000  0.5000000  0.5000000
                       0.0000000  0.0000000  0.0000000     0.0000000  0.5000000  0.5000000
           toldfe      1.00000000E-12 Hartree
            typat      1  1  2  2  3  3  3  3
              wtk        0.12500    0.12500    0.25000    0.06250    0.12500    0.06250
                         0.12500    0.12500
           xangst      0.0000000000E+00  0.0000000000E+00  0.0000000000E+00
                       3.6810243775E-16  3.0058341442E+00  3.0058341442E+00
                       3.0058341442E+00  1.8405425817E-16  3.0058341442E+00
                       3.0058341442E+00  3.0058341442E+00  0.0000000000E+00
                       3.0058341442E+00  3.0058341442E+00  3.0058341442E+00
                       3.0058341442E+00  0.0000000000E+00  0.0000000000E+00
                       1.8404817958E-16  3.0058341442E+00  0.0000000000E+00
                       1.8405425817E-16  1.8405425817E-16  3.0058341442E+00
            xcart      0.0000000000E+00  0.0000000000E+00  0.0000000000E+00
                       6.9561279620E-16  5.6802033335E+00  5.6802033335E+00
                       5.6802033335E+00  3.4781214154E-16  5.6802033335E+00
                       5.6802033335E+00  5.6802033335E+00  0.0000000000E+00
                       5.6802033335E+00  5.6802033335E+00  5.6802033335E+00
                       5.6802033335E+00  0.0000000000E+00  0.0000000000E+00
                       3.4780065466E-16  5.6802033335E+00  0.0000000000E+00
                       3.4781214154E-16  3.4781214154E-16  5.6802033335E+00
             xred      0.0000000000E+00  0.0000000000E+00  0.0000000000E+00
                       0.0000000000E+00  5.0000000000E-01  5.0000000000E-01
                       5.0000000000E-01  6.1629758220E-33  5.0000000000E-01
                       5.0000000000E-01  5.0000000000E-01  0.0000000000E+00
                       5.0000000000E-01  5.0000000000E-01  5.0000000000E-01
                       5.0000000000E-01  0.0000000000E+00  0.0000000000E+00
                       0.0000000000E+00  5.0000000000E-01  0.0000000000E+00
                       6.1629758220E-33  6.1629758220E-33  5.0000000000E-01
            znucl       32.00000   51.00000   52.00000

 chkinp: Checking input parameters for consistency.

== DATASET  1 ==================================================================

 Real(R)+Recip(G) space primitive vectors, cartesian coordinates (Bohr,Bohr^-1):
 R(1)= 11.3604067  0.0000000  0.0000000  G(1)=  0.0880250  0.0000000  0.0000000
 R(2)=  0.0000000 11.3604067  0.0000000  G(2)=  0.0000000  0.0880250  0.0000000
 R(3)=  0.0000000  0.0000000 11.3604067  G(3)=  0.0000000  0.0000000  0.0880250
 Unit cell volume ucvol=  1.4661609E+03 bohr^3
 Angles (23,13,12)=  9.00000000E+01  9.00000000E+01  9.00000000E+01 degrees

 getcut: wavevector=  0.0000  0.0000  0.0000  ngfft=  72  72  72
         ecut(hartree)=     40.000   => boxcut(ratio)=   2.22609

 getcut : COMMENT -
  Note that boxcut > 2.2 ; recall that boxcut=Gcut(box)/Gcut(sphere) = 2
  is sufficient for exact treatment of convolution.
  Such a large boxcut is a waste : you could raise ecut
  e.g. ecut=   49.554945 Hartrees makes boxcut=2

--- Pseudopotential description ------------------------------------------------
- pspini: atom type   1  psp file is ../../../Psps_for_tests/32ge.pspnc
- pspatm: opening atomic psp file    ../../../Psps_for_tests/32ge.pspnc
  Troullier-Martins psp for element  Ge        Thu Oct 27 17:36:58 EDT 1994
- 32.00000   4.00000    940714                znucl, zion, pspdat
    1    1    1    1      2001   0.00000      pspcod,pspxc,lmax,lloc,mmax,r2well
    0   7.185  16.891    1   1.9822350        l,e99.0,e99.9,nproj,rcpsp
   0.00000000   0.00000000   0.00000000   0.00000000     rms, ekb1, ekb2, epsatm
    1   2.741   8.661    0   1.9822350        l,e99.0,e99.9,nproj,rcpsp
   0.00000000   0.00000000   0.00000000   0.00000000     rms, ekb1, ekb2, epsatm
    2.25844779088698    0.25781725564489    2.59172626959347   rchrg,fchrg,qchrg
 pspatm: epsatm=   27.74547559
         --- l  ekb(1:nproj) -->
             0    7.022278
 pspatm: atomic psp has been read  and splines computed

- pspini: atom type   2  psp file is ../../../Psps_for_tests/51sb.pspnc
- pspatm: opening atomic psp file    ../../../Psps_for_tests/51sb.pspnc
  Troullier-Martins psp for element  Sb        Thu Oct 27 17:43:52 EDT 1994
- 51.00000   5.00000    940714                znucl, zion, pspdat
    1    1    1    0      2001   0.00000      pspcod,pspxc,lmax,lloc,mmax,r2well
    0  10.243  15.283    0   2.0764318        l,e99.0,e99.9,nproj,rcpsp
   0.00000000   0.00000000   0.00000000   0.00000000     rms, ekb1, ekb2, epsatm
    1   4.803   7.470    1   2.3236831        l,e99.0,e99.9,nproj,rcpsp
   0.00000000   0.00000000   0.00000000   0.00000000     rms, ekb1, ekb2, epsatm
    2.64748978083368    0.23419959521940    3.79259092024127   rchrg,fchrg,qchrg
 pspatm: epsatm=   49.13254812
         --- l  ekb(1:nproj) -->
             1    0.787318
 pspatm: atomic psp has been read  and splines computed

- pspini: atom type   3  psp file is ../../../Psps_for_tests/52te.pspnc
- pspatm: opening atomic psp file    ../../../Psps_for_tests/52te.pspnc
  Troullier-Martins psp for element  Te        Thu Oct 27 17:44:09 EDT 1994
- 52.00000   6.00000    940714                znucl, zion, pspdat
    1    1    1    0      2001   0.00000      pspcod,pspxc,lmax,lloc,mmax,r2well
    0  10.862  16.078    0   2.0880559        l,e99.0,e99.9,nproj,rcpsp
[...]
    4       0.000000000000      0.000000000000      0.000000000000
    5       0.000000000000      0.000000000000      0.000000000000
    6       0.000000000000      0.000000000000      0.000000000000
    7       0.000000000000      0.000000000000      0.000000000000
    8       0.000000000000      0.000000000000      0.000000000000

 cartesian coordinates (angstrom) at end:
    1      0.00000000000000     0.00000000000000     0.00000000000000
    2      0.00000000000000     3.00583414422032     3.00583414422032
    3      3.00583414422032     0.00000000000000     3.00583414422032
    4      3.00583414422032     3.00583414422032     0.00000000000000
    5      3.00583414422032     3.00583414422032     3.00583414422032
    6      3.00583414422032     0.00000000000000     0.00000000000000
    7      0.00000000000000     3.00583414422032     0.00000000000000
    8      0.00000000000000     0.00000000000000     3.00583414422032

 cartesian forces (hartree/bohr) at end:
    1     -0.00000000000000    -0.00000000000000    -0.00000000000000
    2     -0.00000000000000    -0.00000000000000    -0.00000000000000
    3     -0.00000000000000    -0.00000000000000    -0.00000000000000
    4     -0.00000000000000    -0.00000000000000    -0.00000000000000
    5     -0.00000000000000    -0.00000000000000    -0.00000000000000
    6     -0.00000000000000    -0.00000000000000    -0.00000000000000
    7     -0.00000000000000    -0.00000000000000    -0.00000000000000
    8     -0.00000000000000    -0.00000000000000    -0.00000000000000
 frms,max,avg= 0.0000000E+00 0.0000000E+00   0.000E+00  0.000E+00  0.000E+00 h/b

 cartesian forces (eV/Angstrom) at end:
    1     -0.00000000000000    -0.00000000000000    -0.00000000000000
    2     -0.00000000000000    -0.00000000000000    -0.00000000000000
    3     -0.00000000000000    -0.00000000000000    -0.00000000000000
    4     -0.00000000000000    -0.00000000000000    -0.00000000000000
    5     -0.00000000000000    -0.00000000000000    -0.00000000000000
    6     -0.00000000000000    -0.00000000000000    -0.00000000000000
    7     -0.00000000000000    -0.00000000000000    -0.00000000000000
    8     -0.00000000000000    -0.00000000000000    -0.00000000000000
 frms,max,avg= 0.0000000E+00 0.0000000E+00   0.000E+00  0.000E+00  0.000E+00 e/A
 length scales= 11.360406666906 11.360406666906 11.360406666906 bohr
              =  6.011668288441  6.011668288441  6.011668288441 angstroms
 prteigrs : about to open file b11o_EIG
 Fermi (or HOMO) energy (hartree) =   0.03733   Average Vxc (hartree)=  -0.37344
 Eigenvalues (hartree) for nkpt=   8  k points:
 kpt#   1, nband= 22, wtk=  0.12500, kpt= -0.2500  0.5000  0.0000 (reduced coord)
  -0.45062  -0.45062  -0.40890  -0.40890  -0.32369  -0.32369  -0.27193  -0.27193
  -0.17677  -0.17677  -0.14439  -0.14439  -0.12094  -0.12094  -0.08290  -0.08290
  -0.06260  -0.06260  -0.02945  -0.02945   0.01283   0.01283
 kpt#   2, nband= 22, wtk=  0.12500, kpt=  0.5000 -0.2500  0.0000 (reduced coord)
  -0.45789  -0.44112  -0.41257  -0.40661  -0.33815  -0.30181  -0.28823  -0.26442
  -0.18576  -0.16248  -0.15379  -0.13463  -0.13129  -0.11281  -0.08629  -0.08228
  -0.06356  -0.05671  -0.03418  -0.03003   0.00420   0.02347
 kpt#   3, nband= 22, wtk=  0.25000, kpt= -0.2500 -0.2500  0.2500 (reduced coord)
  -0.46487  -0.41792  -0.41747  -0.41619  -0.33002  -0.31725  -0.29795  -0.26005
  -0.16078  -0.15871  -0.15821  -0.11516  -0.11229  -0.10414  -0.10066  -0.09982
  -0.09311  -0.06362  -0.06213  -0.03329   0.03733   0.03911
 kpt#   4, nband= 22, wtk=  0.06250, kpt= -0.2500  0.0000  0.0000 (reduced coord)
  -0.48068  -0.42625  -0.40855  -0.40830  -0.31348  -0.28088  -0.27740  -0.21235
  -0.20602  -0.20602  -0.17189  -0.14897  -0.14897  -0.12942  -0.12942  -0.10320
  -0.08610  -0.07748  -0.07748  -0.02339   0.03695   0.05180
 kpt#   5, nband= 22, wtk=  0.12500, kpt=  0.5000  0.5000  0.2500 (reduced coord)
  -0.43030  -0.43030  -0.42024  -0.42024  -0.34292  -0.34292  -0.30978  -0.30978
  -0.12549  -0.12549  -0.10396  -0.10396  -0.07143  -0.07143  -0.05756  -0.05756
  -0.03902  -0.03902  -0.03593  -0.03593   0.00046   0.00060
 kpt#   6, nband= 22, wtk=  0.06250, kpt= -0.2500  0.5000  0.5000 (reduced coord)
  -0.42604  -0.42604  -0.42513  -0.42513  -0.34189  -0.34189  -0.30995  -0.30995
  -0.12373  -0.12373  -0.10775  -0.10775  -0.06895  -0.06895  -0.05931  -0.05931
  -0.03898  -0.03898  -0.03709  -0.03709  -0.00476  -0.00475
 kpt#   7, nband= 22, wtk=  0.12500, kpt=  0.0000 -0.2500  0.0000 (reduced coord)
  -0.48018  -0.42865  -0.40832  -0.40711  -0.30361  -0.29846  -0.26839  -0.21219
  -0.20532  -0.20515  -0.17241  -0.15611  -0.15366  -0.12518  -0.12478  -0.09479
  -0.09165  -0.08048  -0.07778  -0.02170   0.03613   0.05539
 kpt#   8, nband= 22, wtk=  0.12500, kpt=  0.0000  0.5000  0.2500 (reduced coord)
  -0.45033  -0.45033  -0.40962  -0.40962  -0.32300  -0.32300  -0.27175  -0.27175
  -0.17675  -0.17675  -0.14420  -0.14420  -0.12353  -0.12353  -0.08208  -0.08208
  -0.06090  -0.06090  -0.03108  -0.03108   0.01433   0.01433
 Total charge density [el/Bohr^3]
,     Maximum=    8.0497E-02  at reduced coord.    0.5000    0.0000    0.8611
,Next maximum=    8.0497E-02  at reduced coord.    0.5000    0.5000    0.6389
,     Minimum=    3.7938E-03  at reduced coord.    0.2500    0.2500    0.2500
,Next minimum=    3.7938E-03  at reduced coord.    0.7500    0.2500    0.2500
,  Integrated=    4.2000E+01

 Components of total free energy (in Hartree) :

    Kinetic energy  =  1.55535237786836E+01
    Hartree energy  =  2.22113288331035E+00
    XC energy       = -2.74667246210342E+01
    Ewald energy    = -5.58620427492250E+01
    PspCore energy  =  1.02717778244938E+01
    Loc. psp. energy= -1.06907642102683E+01
    NL   psp  energy=  9.68529999452261E-01
    >>>>>>>>> Etotal= -6.50045670945876E+01

 Other information on the energy :
    Total energy(eV)= -1.76886422786395E+03 ; Band energy (Ha)=  -8.2325509735E+00

 Cartesian components of stress tensor (hartree/bohr^3)
  sigma(1 1)=  3.42324771E-04  sigma(3 2)=  0.00000000E+00
  sigma(2 2)=  2.46598278E-04  sigma(3 1)=  0.00000000E+00
  sigma(3 3)=  2.46598278E-04  sigma(2 1)=  0.00000000E+00

-Cartesian components of stress tensor (GPa)         [Pressure= -8.1940E+00 GPa]
- sigma(1 1)=  1.00715408E+01  sigma(3 2)=  0.00000000E+00
- sigma(2 2)=  7.25517059E+00  sigma(3 1)=  0.00000000E+00
- sigma(3 3)=  7.25517059E+00  sigma(2 1)=  0.00000000E+00

== END DATASET(S) ==============================================================

 -outvars: echo values of variables after computation  --------
            acell      1.1360406667E+01  1.1360406667E+01  1.1360406667E+01 Bohr
              amu      7.26100000E+01  1.21753000E+02  1.27600000E+02
           diemac      2.00000000E+00
             ecut      4.00000000E+01 Hartree
           etotal     -6.5004567095E+01
            fcart     -0.0000000000E+00 -0.0000000000E+00 -0.0000000000E+00
                      -0.0000000000E+00 -0.0000000000E+00 -0.0000000000E+00
                      -0.0000000000E+00 -0.0000000000E+00 -0.0000000000E+00
                      -0.0000000000E+00 -0.0000000000E+00 -0.0000000000E+00
                      -0.0000000000E+00 -0.0000000000E+00 -0.0000000000E+00
                      -0.0000000000E+00 -0.0000000000E+00 -0.0000000000E+00
                      -0.0000000000E+00 -0.0000000000E+00 -0.0000000000E+00
                      -0.0000000000E+00 -0.0000000000E+00 -0.0000000000E+00
           ionmov           2
              kpt     -2.50000000E-01  5.00000000E-01  0.00000000E+00
                       5.00000000E-01 -2.50000000E-01  0.00000000E+00
                      -2.50000000E-01 -2.50000000E-01  2.50000000E-01
                      -2.50000000E-01  0.00000000E+00  0.00000000E+00
                       5.00000000E-01  5.00000000E-01  2.50000000E-01
                      -2.50000000E-01  5.00000000E-01  5.00000000E-01
                       0.00000000E+00 -2.50000000E-01  0.00000000E+00
                       0.00000000E+00  5.00000000E-01  2.50000000E-01
          kptrlen      3.93536031E+01
         kptrlatt      2 -2  2  -2  2  2  -2 -2  2
P           mkmem           8
            natom           8
            nband          22
            ngfft          72      72      72
             nkpt           8
            nstep          15
             nsym          32
           ntypat           3
              occ      2.000000  2.000000  2.000000  2.000000  2.000000  2.000000
                       2.000000  2.000000  2.000000  2.000000  2.000000  2.000000
                       2.000000  2.000000  2.000000  2.000000  2.000000  2.000000
                       2.000000  2.000000  2.000000  0.000000
           shiftk      5.00000000E-01  5.00000000E-01  5.00000000E-01
           strten      3.4232477084E-04  2.4659827775E-04  2.4659827775E-04
                       0.0000000000E+00  0.0000000000E+00  0.0000000000E+00
           symrel      1  0  0   0  1  0   0  0  1       1  0  0   0  1  0   0  0  1
                      -1  0  0   0 -1  0   0  0 -1      -1  0  0   0 -1  0   0  0 -1
                      -1  0  0   0  1  0   0  0 -1      -1  0  0   0  1  0   0  0 -1
                       1  0  0   0 -1  0   0  0  1       1  0  0   0 -1  0   0  0  1
                      -1  0  0   0 -1  0   0  0  1      -1  0  0   0 -1  0   0  0  1
                       1  0  0   0  1  0   0  0 -1       1  0  0   0  1  0   0  0 -1
                       1  0  0   0 -1  0   0  0 -1       1  0  0   0 -1  0   0  0 -1
                      -1  0  0   0  1  0   0  0  1      -1  0  0   0  1  0   0  0  1
                       1  0  0   0  0  1   0  1  0       1  0  0   0  0  1   0  1  0
                      -1  0  0   0  0 -1   0 -1  0      -1  0  0   0  0 -1   0 -1  0
                      -1  0  0   0  0  1   0 -1  0      -1  0  0   0  0  1   0 -1  0
                       1  0  0   0  0 -1   0  1  0       1  0  0   0  0 -1   0  1  0
                      -1  0  0   0  0 -1   0  1  0      -1  0  0   0  0 -1   0  1  0
                       1  0  0   0  0  1   0 -1  0       1  0  0   0  0  1   0 -1  0
                       1  0  0   0  0 -1   0 -1  0       1  0  0   0  0 -1   0 -1  0
                      -1  0  0   0  0  1   0  1  0      -1  0  0   0  0  1   0  1  0
            tnons      0.0000000  0.0000000  0.0000000     0.0000000  0.5000000  0.5000000
                       0.0000000  0.0000000  0.0000000     0.0000000  0.5000000  0.5000000
                       0.0000000  0.0000000  0.0000000     0.0000000  0.5000000  0.5000000
                       0.0000000  0.0000000  0.0000000     0.0000000  0.5000000  0.5000000
                       0.0000000  0.0000000  0.0000000     0.0000000  0.5000000  0.5000000
                       0.0000000  0.0000000  0.0000000     0.0000000  0.5000000  0.5000000
                       0.0000000  0.0000000  0.0000000     0.0000000  0.5000000  0.5000000
                       0.0000000  0.0000000  0.0000000     0.0000000  0.5000000  0.5000000
                       0.0000000  0.0000000  0.0000000     0.0000000  0.5000000  0.5000000
                       0.0000000  0.0000000  0.0000000     0.0000000  0.5000000  0.5000000
                       0.0000000  0.0000000  0.0000000     0.0000000  0.5000000  0.5000000
                       0.0000000  0.0000000  0.0000000     0.0000000  0.5000000  0.5000000
                       0.0000000  0.0000000  0.0000000     0.0000000  0.5000000  0.5000000
                       0.0000000  0.0000000  0.0000000     0.0000000  0.5000000  0.5000000
                       0.0000000  0.0000000  0.0000000     0.0000000  0.5000000  0.5000000
                       0.0000000  0.0000000  0.0000000     0.0000000  0.5000000  0.5000000
           toldfe      1.00000000E-12 Hartree
            typat      1  1  2  2  3  3  3  3
              wtk        0.12500    0.12500    0.25000    0.06250    0.12500    0.06250
                         0.12500    0.12500
           xangst      0.0000000000E+00  0.0000000000E+00  0.0000000000E+00
                       3.6810243775E-16  3.0058341442E+00  3.0058341442E+00
                       3.0058341442E+00  1.8405425817E-16  3.0058341442E+00
                       3.0058341442E+00  3.0058341442E+00  0.0000000000E+00
                       3.0058341442E+00  3.0058341442E+00  3.0058341442E+00
                       3.0058341442E+00  0.0000000000E+00  0.0000000000E+00
                       1.8404817958E-16  3.0058341442E+00  0.0000000000E+00
                       1.8405425817E-16  1.8405425817E-16  3.0058341442E+00
            xcart      0.0000000000E+00  0.0000000000E+00  0.0000000000E+00
                       6.9561279620E-16  5.6802033335E+00  5.6802033335E+00
                       5.6802033335E+00  3.4781214154E-16  5.6802033335E+00
                       5.6802033335E+00  5.6802033335E+00  0.0000000000E+00
                       5.6802033335E+00  5.6802033335E+00  5.6802033335E+00
                       5.6802033335E+00  0.0000000000E+00  0.0000000000E+00
                       3.4780065466E-16  5.6802033335E+00  0.0000000000E+00
                       3.4781214154E-16  3.4781214154E-16  5.6802033335E+00
             xred      0.0000000000E+00  0.0000000000E+00  0.0000000000E+00
                       0.0000000000E+00  5.0000000000E-01  5.0000000000E-01
                       5.0000000000E-01  6.1629758220E-33  5.0000000000E-01
                       5.0000000000E-01  5.0000000000E-01  0.0000000000E+00
                       5.0000000000E-01  5.0000000000E-01  5.0000000000E-01
                       5.0000000000E-01  0.0000000000E+00  0.0000000000E+00
                       0.0000000000E+00  5.0000000000E-01  0.0000000000E+00
                       6.1629758220E-33  6.1629758220E-33  5.0000000000E-01
            znucl       32.00000   51.00000   52.00000

- as well as % of the total time and number of calls

-                                                                  (-1=no count)
- fourwf(pot)                  256.186  56.2    256.042  56.1          14915
- projbd                        84.218  18.5     84.270  18.5          23846
- nonlop(apply)                 44.931   9.9     44.818   9.8          14915
- fourwf(den)                   24.221   5.3     24.210   5.3           2520
- vtowfk(ssdiag)                13.078   2.9     13.071   2.9             -1
- getghc-other                   4.044   0.9      4.193   0.9             -1
- 64   others                    6.869   1.5      6.893   1.5

- subtotal                     433.547  95.1    433.497  95.1

 Suggested references for the acknowledgment of ABINIT usage.

 [1] ABINIT : First-principles approach of materials and nanosystem properties.
 X. Gonze, B. Amadon, P.-M. Anglade, J.-M. Beuken, F. Bottin, P. Boulanger, F. Bruneval,
 D. Caliste, R. Caracas, M. Cote, T. Deutsch, L. Genovese, Ph. Ghosez, M. Giantomassi
 S. Goedecker, D.R. Hamann, P. Hermet, F. Jollet, G. Jomard, S. Leroux, M. Mancini, S. Mazevet,
 M.J.T. Oliveira, G. Onida, Y. Pouillon, T. Rangel, G.-M. Rignanese, D. Sangalli, R. Shaltaf,
 M. Torrent, M.J. Verstraete, G. Zerah, J.W. Zwanziger
 Computer Phys. Comm. 180, 2582-2615 (2009).
 Comment : the third generic paper describing the ABINIT project.
 Note that a version of this paper, that is not formatted for Computer Phys. Comm.
 The licence allows the authors to put it on the Web.

 [2] A brief introduction to the ABINIT software package.
 X. Gonze, G.-M. Rignanese, M. Verstraete, J.-M. Beuken, Y. Pouillon, R. Caracas, F. Jollet,
 M. Torrent, G. Zerah, M. Mikami, Ph. Ghosez, M. Veithen, J.-Y. Raty, V. Olevano, F. Bruneval,
 L. Reining, R. Godby, G. Onida, D.R. Hamann, and D.C. Allan.
 Z. Kristallogr. 220, 558-562 (2005).
 Comment : the second generic paper describing the ABINIT project. Note that this paper
 should be cited especially if you are using the GW part of ABINIT, as several authors
 of this part are not in the list of authors of the first or third paper.
 Note that it should not redistributed (Copyright by Oldenburg Wissenshaftverlag,
 the licence allows the authors to put it on the Web).

 And optionally :

 [3] First-principles computation of material properties : the ABINIT software project.
 X. Gonze, J.-M. Beuken, R. Caracas, F. Detraux, M. Fuchs, G.-M. Rignanese, L. Sindic,
 M. Verstraete, G. Zerah, F. Jollet, M. Torrent, A. Roy, M. Mikami, Ph. Ghosez, J.-Y. Raty, D.C. Allan.
 Comment : the original paper describing the ABINIT project.

 [4] Fast radix 2, 3, 4 and 5 kernels for Fast Fourier Transformations
 on computers with overlapping multiply-add instructions.
 S. Goedecker, SIAM J. on Scientific Computing 18, 1605 (1997).

 Calculation completed.
.Delivered    1 WARNINGs and   5 COMMENTs to log file.