.Version 8.6.3 of ABINIT

 ABINIT is a project of the Universite Catholique de Louvain,
 Corning Inc. and other collaborators, see ~abinit/doc/developers/contributors.txt .
 Please read ~abinit/doc/users/acknowledgments.html for suggested
 acknowledgments of the ABINIT effort.

.Starting date : Thu 18 Jun 2020.
- ( at 12h08 )

- The starting date is more than 2 years after the initial release
- of this version of ABINIT, namely Dec 2017.
- Note that the use beyond 3 years after the release will not be supported.
- Action: please, switch to a more recent version of ABINIT.

- input  file    -> GWRbGeCl3.in
- output file    -> GWRbGeCl3.out
- root for input  files -> tbase1_xi
- root for output files -> tbase1_xo

 DATASET    1 : space group Pm -3 m (#221); Bravais cP (primitive cubic)
     intxc =       0    ionmov =       0      iscf =       7    lmnmax =       6
     lnmax =       6     mgfft =      64  mpssoang =       3    mqgrid =    3019
     natom =       5  nloc_mem =       1    nspden =       1   nspinor =       1
    nsppol =       1      nsym =      48    n1xccc =    2501    ntypat =       3
    occopt =       1   xclevel =       2
-    mband =          23        mffmem =           1         mkmem =           1
       mpw =       14436          nfft =      262144          nkpt =          10
  Rough estimation (10% accuracy) of disk space for files :

[...]

 DATASET    4 : space group Pm -3 m (#221); Bravais cP (primitive cubic)
     intxc =       0    ionmov =       0      iscf =       7    lmnmax =       6
     lnmax =       6     mgfft =      50  mpssoang =       3    mqgrid =    3001
     natom =       5  nloc_mem =       1    nspden =       1   nspinor =       1
    nsppol =       1      nsym =      48    n1xccc =    2501    ntypat =       3
    occopt =       1   xclevel =       2
-    mband =          40        mffmem =           1         mkmem =           1
       mpw =        7712          nfft =      125000          nkpt =          10
  Rough estimation (10% accuracy) of disk space for files :

------------- Echo of variables that govern the present computation ------------
-
- outvars: echo of selected default values
-   iomode0 =  0 , fftalg0 =312 , wfoptalg0 =  0
-
- outvars: echo of global parameters not present in the input file
-  max_nthreads =    0
-
 -outvars: echo values of preprocessed input variables --------
            acell      9.9962832623E+00  9.9962832623E+00  9.9962832623E+00 Bohr
              amu      8.54678000E+01  7.26100000E+01  3.54527000E+01
             bdgw4         22      23
           diemac      8.00000000E+00
             ecut1     4.50000000E+01 Hartree
             ecut2     4.50000000E+01 Hartree
             ecut3     2.96308351E+01 Hartree
             ecut4     2.96308351E+01 Hartree
          ecuteps1     0.00000000E+00 Hartree
          ecuteps2     0.00000000E+00 Hartree
          ecuteps3     3.99028580E+01 Hartree
          ecuteps4     0.00000000E+00 Hartree
         ecutsigx1     0.00000000E+00 Hartree
         ecutsigx2     0.00000000E+00 Hartree
         ecutsigx3     0.00000000E+00 Hartree
         ecutsigx4     3.99028580E+01 Hartree
           ecutsm      5.00000000E-01 Hartree
          ecutwfn1     0.00000000E+00 Hartree
          ecutwfn2     0.00000000E+00 Hartree
          ecutwfn3     2.96308351E+01 Hartree
          ecutwfn4     2.96308351E+01 Hartree
-          fftalg         312
           getden1          0
           getden2         -1
           getden3          0
           getden4          0
           getscr1          0
           getscr2          0
           getscr3          0
           getscr4         -1
           getwfk1          0
           getwfk2          0
           getwfk3         -1
           getwfk4         -2
        gwcalctyp          20
            gwmem           0
             iscf1          7
             iscf2         -2
             iscf3          7
             iscf4          7
           istwfk1       2    0    3    0    0    7    0    0    0    9
           istwfk2       1    0    1    0    0    1    0    0    0    1
           istwfk3       1    0    1    0    0    1    0    0    0    1
           istwfk4       1    0    1    0    0    1    0    0    0    1
              ixc          11
           jdtset        1    2    3    4
              kpt      0.00000000E+00  0.00000000E+00  0.00000000E+00
                       2.50000000E-01  0.00000000E+00  0.00000000E+00
                       5.00000000E-01  0.00000000E+00  0.00000000E+00
                       2.50000000E-01  2.50000000E-01  0.00000000E+00
                       5.00000000E-01  2.50000000E-01  0.00000000E+00
                       5.00000000E-01  5.00000000E-01  0.00000000E+00
                       2.50000000E-01  2.50000000E-01  2.50000000E-01
                       5.00000000E-01  2.50000000E-01  2.50000000E-01
                       5.00000000E-01  5.00000000E-01  2.50000000E-01
                       5.00000000E-01  5.00000000E-01  5.00000000E-01
            kptgw4     5.00000000E-01  5.00000000E-01  5.00000000E-01
         kptrlatt        4    0    0      0    4    0      0    0    4
          kptrlen      3.99851330E+01
P           mkmem           1
            natom           5
            nband1         23
            nband2        105
            nband3         40
            nband4         40
           nbdbuf1          0
           nbdbuf2         10
           nbdbuf3          0
           nbdbuf4          0
           ndtset           4
            ngfft1         64      64      64
            ngfft2         64      64      64
            ngfft3         50      50      50
            ngfft4         50      50      50
             nkpt          10
           nkptgw1          0
           nkptgw2          0
           nkptgw3          0
           nkptgw4          1
           npweps1          0
           npweps2          0
           npweps3      12053
           npweps4          0
          npwsigx1          0
          npwsigx2          0
          npwsigx3          0
          npwsigx4      12053
           npwwfn1          0
           npwwfn2          0
           npwwfn3       7809
           npwwfn4       7809
            nstep         200
             nsym          48
           ntypat           3
              occ1     2.000000  2.000000  2.000000  2.000000  2.000000  2.000000
                       2.000000  2.000000  2.000000  2.000000  2.000000  2.000000
                       2.000000  2.000000  2.000000  2.000000  2.000000  2.000000
                       2.000000  2.000000  2.000000  2.000000  0.000000
              occ3     2.000000  2.000000  2.000000  2.000000  2.000000  2.000000
                       2.000000  2.000000  2.000000  2.000000  2.000000  2.000000
                       2.000000  2.000000  2.000000  2.000000  2.000000  2.000000
                       2.000000  2.000000  2.000000  2.000000  0.000000  0.000000
                       0.000000  0.000000  0.000000  0.000000  0.000000  0.000000
                       0.000000  0.000000  0.000000  0.000000  0.000000  0.000000
                       0.000000  0.000000  0.000000  0.000000
              occ4     2.000000  2.000000  2.000000  2.000000  2.000000  2.000000
                       2.000000  2.000000  2.000000  2.000000  2.000000  2.000000
                       2.000000  2.000000  2.000000  2.000000  2.000000  2.000000
                       2.000000  2.000000  2.000000  2.000000  0.000000  0.000000
                       0.000000  0.000000  0.000000  0.000000  0.000000  0.000000
                       0.000000  0.000000  0.000000  0.000000  0.000000  0.000000
                       0.000000  0.000000  0.000000  0.000000
        optdriver1          0
        optdriver2          0
        optdriver3          3
        optdriver4          4
           ppmfrq1     0.00000000E+00 Hartree
           ppmfrq2     0.00000000E+00 Hartree
           ppmfrq3     6.13713734E-01 Hartree
           ppmfrq4     0.00000000E+00 Hartree
           prtcif1          1
           prtcif2          0
           prtcif3          0
           prtcif4          0
          spgroup         221
        symmorphi           0
           symrel      1  0  0   0  1  0   0  0  1      -1  0  0   0 -1  0   0  0 -1
                      -1  0  0   0  1  0   0  0 -1       1  0  0   0 -1  0   0  0  1
                      -1  0  0   0 -1  0   0  0  1       1  0  0   0  1  0   0  0 -1
                       1  0  0   0 -1  0   0  0 -1      -1  0  0   0  1  0   0  0  1
                       0  1  0   1  0  0   0  0  1       0 -1  0  -1  0  0   0  0 -1
                       0 -1  0   1  0  0   0  0 -1       0  1  0  -1  0  0   0  0  1
                       0 -1  0  -1  0  0   0  0  1       0  1  0   1  0  0   0  0 -1
                       0  1  0  -1  0  0   0  0 -1       0 -1  0   1  0  0   0  0  1
                       0  0  1   1  0  0   0  1  0       0  0 -1  -1  0  0   0 -1  0
                       0  0 -1   1  0  0   0 -1  0       0  0  1  -1  0  0   0  1  0
                       0  0 -1  -1  0  0   0  1  0       0  0  1   1  0  0   0 -1  0
                       0  0  1  -1  0  0   0 -1  0       0  0 -1   1  0  0   0  1  0
                       1  0  0   0  0  1   0  1  0      -1  0  0   0  0 -1   0 -1  0
                      -1  0  0   0  0  1   0 -1  0       1  0  0   0  0 -1   0  1  0
                      -1  0  0   0  0 -1   0  1  0       1  0  0   0  0  1   0 -1  0
                       1  0  0   0  0 -1   0 -1  0      -1  0  0   0  0  1   0  1  0
                       0  1  0   0  0  1   1  0  0       0 -1  0   0  0 -1  -1  0  0
                       0 -1  0   0  0  1  -1  0  0       0  1  0   0  0 -1   1  0  0
                       0 -1  0   0  0 -1   1  0  0       0  1  0   0  0  1  -1  0  0
                       0  1  0   0  0 -1  -1  0  0       0 -1  0   0  0  1   1  0  0
                       0  0  1   0  1  0   1  0  0       0  0 -1   0 -1  0  -1  0  0
                       0  0 -1   0  1  0  -1  0  0       0  0  1   0 -1  0   1  0  0
                       0  0 -1   0 -1  0   1  0  0       0  0  1   0  1  0  -1  0  0
                       0  0  1   0 -1  0  -1  0  0       0  0 -1   0  1  0   1  0  0
           tolvrs1     1.00000000E-10
           tolvrs2     0.00000000E+00
           tolvrs3     0.00000000E+00
           tolvrs4     0.00000000E+00
           tolwfr1     0.00000000E+00
           tolwfr2     1.00000000E-10
           tolwfr3     1.00000000E-10
           tolwfr4     1.00000000E-10
           tsmear      2.00000000E-03 Hartree
            typat      1  2  3  3  3
              wtk        0.01563    0.09375    0.04688    0.18750    0.18750    0.04688
                         0.12500    0.18750    0.09375    0.01563
           xangst      2.1461990946E-28  2.0215940308E-29 -1.0720576634E-28
                       2.6449026365E+00  2.6449026365E+00  2.6449026365E+00
                       2.6449026365E+00  2.6449026365E+00 -1.0720576634E-28
                       2.6449026365E+00  2.0215940308E-29  2.6449026365E+00
                       2.1461990946E-28  2.6449026365E+00  2.6449026365E+00
[...]

 Real(R)+Recip(G) space primitive vectors, cartesian coordinates (Bohr,Bohr^-1):
 R(1)=  9.9962833  0.0000000  0.0000000  G(1)=  0.1000372  0.0000000  0.0000000
 R(2)=  0.0000000  9.9962833  0.0000000  G(2)=  0.0000000  0.1000372  0.0000000
 R(3)=  0.0000000  0.0000000  9.9962833  G(3)=  0.0000000  0.0000000  0.1000372
 Unit cell volume ucvol=  9.9888539E+02 bohr^3
 Angles (23,13,12)=  9.00000000E+01  9.00000000E+01  9.00000000E+01 degrees

 ==== K-mesh for the wavefunctions ====
 Number of points in the irreducible wedge :    10
 Reduced coordinates and weights :

[...]

 COMMENT: In a self-consistent GW run, the QP corrections should be calculated for all the k-points of the KSS file
 but nkptgw= 1 and WFK nkpt= 10
 Assuming expert user. Execution will continue.
 ==== Q-mesh for screening function ====
 Number of points in the irreducible wedge :    10
 Reduced coordinates and weights :

     1)     0.00000000E+00  0.00000000E+00  0.00000000E+00       0.01563
     2)     2.50000000E-01  0.00000000E+00  0.00000000E+00       0.09375
     3)     5.00000000E-01  0.00000000E+00  0.00000000E+00       0.04688
     4)     2.50000000E-01  2.50000000E-01  0.00000000E+00       0.18750
     5)     5.00000000E-01  2.50000000E-01  0.00000000E+00       0.18750
     6)     5.00000000E-01  5.00000000E-01  0.00000000E+00       0.04688
     7)     2.50000000E-01  2.50000000E-01  2.50000000E-01       0.12500
     8)     5.00000000E-01  2.50000000E-01  2.50000000E-01       0.18750
     9)     5.00000000E-01  5.00000000E-01  2.50000000E-01       0.09375
    10)     5.00000000E-01  5.00000000E-01  5.00000000E-01       0.01563

 Together with 48 symmetry operations and time-reversal symmetry
 yields    64 points in the full Brillouin Zone.

 setmesh: FFT mesh size selected  =  54x 54x 54
          total number of points  =   157464

[...]

 rdqps: reading QP wavefunctions of the previous step
        looking for file tbase1_xi_DS4_QPS
 file not found, 1st iteration initialized with KS eigenelements

 Number of electrons calculated from density =   43.9993; Expected =   44.0000
 average of density, n =  0.044048
 r_s =    1.7565
 omega_plasma =   20.2451 [eV]

 QP results after the unitary transformation in the KS subspace:

  Number of electrons    =   43.9993

  QP Band energy    [Ha] = -1.69156982026997E+01
  QP Hartree energy [Ha] =  4.95496498919647E+01

 === KS Band Gaps ===
  >>>> For spin  1
   Minimum optical gap =   0.9395 [eV], located at k-point      :   0.5000  0.5000  0.5000
   Fundamental gap     =   0.9395 [eV], Top of valence bands at :   0.5000  0.5000  0.5000
                                        Bottom of conduction at :   0.5000  0.5000  0.5000
 SIGMA fundamental parameters:
 PLASMON POLE MODEL  1
 number of plane-waves for SigmaX                12053
 number of plane-waves for SigmaC and W          12053
 number of plane-waves for wavefunctions          7809
 number of bands                                    40
 number of independent spin polarizations            1
 number of spinorial components                      1
 number of k-points in IBZ                          10
 number of q-points in IBZ                          10
 number of symmetry operations                      48
 number of k-points in BZ                           64
 number of q-points in BZ                           64
 number of frequencies for dSigma/dE                 9
 frequency step for dSigma/dE [eV]                0.25
 number of omega for Sigma on real axis              0
 max omega for Sigma on real axis  [eV]           0.00
 zcut for avoiding poles [eV]                     0.10

 EPSILON^-1 parameters (SCR file):
 dimension of the eps^-1 matrix on file          12053
 dimension of the eps^-1 matrix used             12053
 number of plane-waves for wavefunctions          7809
 number of bands                                    40
 number of q-points in IBZ                          10
 number of frequencies                               2
 number of real frequencies                          1
 number of imag frequencies                          1

 matrix elements of self-energy operator (all in [eV])

 Self-Consistent on Energies and Wavefunctions

 k =    0.500   0.500   0.500
 Band     E_lda   <Vxclda>   E(N-1)  <Hhartree>   SigX  SigC[E(N-1)]    Z     dSigC/dE  Sig[E(N)]  DeltaE  E(N)_pert E(N)_diago
   22     1.917   -15.296     1.917    17.213   -16.903     2.112     0.782    -0.279   -14.901     0.395     2.312     2.422
   23     2.857   -11.018     2.857    13.874    -7.750    -1.899     0.800    -0.250    -9.923     1.095     3.952     4.225
   24     2.857   -11.018     2.857    13.874    -7.750    -1.898     0.800    -0.250    -9.922     1.095     3.952     4.226
   25     2.857   -11.018     2.857    13.874    -7.750    -1.898     0.800    -0.250    -9.922     1.095     3.952     4.226

 E^0_gap          0.939
 E^GW_gap         1.640
 DeltaE^GW_gap    0.700

 writing QP data on file : tbase1_xo_DS4_QPS

 Convergence of QP corrections
 >>>>> For spin  1 <<<<<
.  kptgw no:  1; Maximum DeltaE = (   0.000   0.000) for band index:  4

== END DATASET(S) ==============================================================

 -outvars: echo values of variables after computation  --------
            acell      9.9962832623E+00  9.9962832623E+00  9.9962832623E+00 Bohr
              amu      8.54678000E+01  7.26100000E+01  3.54527000E+01
             bdgw4         22      23
           diemac      8.00000000E+00
             ecut1     4.50000000E+01 Hartree
             ecut2     4.50000000E+01 Hartree
             ecut3     2.96308351E+01 Hartree
             ecut4     2.96308351E+01 Hartree
          ecuteps1     0.00000000E+00 Hartree
          ecuteps2     0.00000000E+00 Hartree
          ecuteps3     3.99028580E+01 Hartree
          ecuteps4     0.00000000E+00 Hartree
         ecutsigx1     0.00000000E+00 Hartree
         ecutsigx2     0.00000000E+00 Hartree
         ecutsigx3     0.00000000E+00 Hartree
         ecutsigx4     3.99028580E+01 Hartree
           ecutsm      5.00000000E-01 Hartree
          ecutwfn1     0.00000000E+00 Hartree
          ecutwfn2     0.00000000E+00 Hartree
          ecutwfn3     2.96308351E+01 Hartree
          ecutwfn4     2.96308351E+01 Hartree
           etotal1    -1.6583118403E+02
           etotal3     0.0000000000E+00
           etotal4     0.0000000000E+00
            fcart1    -0.0000000000E+00 -0.0000000000E+00 -0.0000000000E+00
                      -0.0000000000E+00 -0.0000000000E+00 -0.0000000000E+00
                      -0.0000000000E+00 -0.0000000000E+00 -0.0000000000E+00
                      -0.0000000000E+00 -0.0000000000E+00 -0.0000000000E+00
                      -0.0000000000E+00 -0.0000000000E+00 -0.0000000000E+00
            fcart3     0.0000000000E+00  0.0000000000E+00  0.0000000000E+00
                       0.0000000000E+00  0.0000000000E+00  0.0000000000E+00
                       0.0000000000E+00  0.0000000000E+00  0.0000000000E+00
                       0.0000000000E+00  0.0000000000E+00  0.0000000000E+00
                       0.0000000000E+00  0.0000000000E+00  0.0000000000E+00
            fcart4     0.0000000000E+00  0.0000000000E+00  0.0000000000E+00
                       0.0000000000E+00  0.0000000000E+00  0.0000000000E+00
                       0.0000000000E+00  0.0000000000E+00  0.0000000000E+00
                       0.0000000000E+00  0.0000000000E+00  0.0000000000E+00
                       0.0000000000E+00  0.0000000000E+00  0.0000000000E+00
-          fftalg         312
           getden1          0
           getden2         -1
           getden3          0
           getden4          0
           getscr1          0
           getscr2          0
           getscr3          0
           getscr4         -1
           getwfk1          0
           getwfk2          0
           getwfk3         -1
           getwfk4         -2
        gwcalctyp          20
            gwmem           0
             iscf1          7
             iscf2         -2
             iscf3          7
             iscf4          7
           istwfk1       2    0    3    0    0    7    0    0    0    9
           istwfk2       1    0    1    0    0    1    0    0    0    1
           istwfk3       1    0    1    0    0    1    0    0    0    1
           istwfk4       1    0    1    0    0    1    0    0    0    1
              ixc          11
           jdtset        1    2    3    4
              kpt      0.00000000E+00  0.00000000E+00  0.00000000E+00
                       2.50000000E-01  0.00000000E+00  0.00000000E+00
                       5.00000000E-01  0.00000000E+00  0.00000000E+00
                       2.50000000E-01  2.50000000E-01  0.00000000E+00
                       5.00000000E-01  2.50000000E-01  0.00000000E+00
                       5.00000000E-01  5.00000000E-01  0.00000000E+00
                       2.50000000E-01  2.50000000E-01  2.50000000E-01
                       5.00000000E-01  2.50000000E-01  2.50000000E-01
                       5.00000000E-01  5.00000000E-01  2.50000000E-01
                       5.00000000E-01  5.00000000E-01  5.00000000E-01
            kptgw4     5.00000000E-01  5.00000000E-01  5.00000000E-01
         kptrlatt        4    0    0      0    4    0      0    0    4
          kptrlen      3.99851330E+01
P           mkmem           1
            natom           5
            nband1         23
            nband2        105
            nband3         40
            nband4         40
           nbdbuf1          0
           nbdbuf2         10
           nbdbuf3          0
           nbdbuf4          0
           ndtset           4
            ngfft1         64      64      64
            ngfft2         64      64      64
            ngfft3         50      50      50
            ngfft4         50      50      50
             nkpt          10
           nkptgw1          0
           nkptgw2          0
           nkptgw3          0
           nkptgw4          1
           npweps1          0
           npweps2          0
           npweps3      12053
           npweps4          0
          npwsigx1          0
          npwsigx2          0
          npwsigx3          0
          npwsigx4      12053
           npwwfn1          0
           npwwfn2          0
           npwwfn3       7809
           npwwfn4       7809
            nstep         200
             nsym          48
           ntypat           3
              occ1     2.000000  2.000000  2.000000  2.000000  2.000000  2.000000
                       2.000000  2.000000  2.000000  2.000000  2.000000  2.000000
                       2.000000  2.000000  2.000000  2.000000  2.000000  2.000000
                       2.000000  2.000000  2.000000  2.000000  0.000000
              occ3     2.000000  2.000000  2.000000  2.000000  2.000000  2.000000
                       2.000000  2.000000  2.000000  2.000000  2.000000  2.000000
                       2.000000  2.000000  2.000000  2.000000  2.000000  2.000000
                       2.000000  2.000000  2.000000  2.000000  0.000000  0.000000
                       0.000000  0.000000  0.000000  0.000000  0.000000  0.000000
                       0.000000  0.000000  0.000000  0.000000  0.000000  0.000000
                       0.000000  0.000000  0.000000  0.000000
              occ4     2.000000  2.000000  2.000000  2.000000  2.000000  2.000000
                       2.000000  2.000000  2.000000  2.000000  2.000000  2.000000
                       2.000000  2.000000  2.000000  2.000000  2.000000  2.000000
                       2.000000  2.000000  2.000000  2.000000  0.000000  0.000000
                       0.000000  0.000000  0.000000  0.000000  0.000000  0.000000
                       0.000000  0.000000  0.000000  0.000000  0.000000  0.000000
                       0.000000  0.000000  0.000000  0.000000
        optdriver1          0
        optdriver2          0
        optdriver3          3
        optdriver4          4
           ppmfrq1     0.00000000E+00 Hartree
           ppmfrq2     0.00000000E+00 Hartree
           ppmfrq3     6.13713734E-01 Hartree
           ppmfrq4     0.00000000E+00 Hartree
           prtcif1          1
           prtcif2          0
           prtcif3          0
           prtcif4          0
          spgroup         221
           strten1    -8.4607073262E-06 -8.4607073262E-06 -8.4607073262E-06
                       0.0000000000E+00  0.0000000000E+00  0.0000000000E+00
           strten3     0.0000000000E+00  0.0000000000E+00  0.0000000000E+00
                       0.0000000000E+00  0.0000000000E+00  0.0000000000E+00
           strten4     0.0000000000E+00  0.0000000000E+00  0.0000000000E+00
                       0.0000000000E+00  0.0000000000E+00  0.0000000000E+00
        symmorphi           0
           symrel      1  0  0   0  1  0   0  0  1      -1  0  0   0 -1  0   0  0 -1
                      -1  0  0   0  1  0   0  0 -1       1  0  0   0 -1  0   0  0  1
                      -1  0  0   0 -1  0   0  0  1       1  0  0   0  1  0   0  0 -1
                       1  0  0   0 -1  0   0  0 -1      -1  0  0   0  1  0   0  0  1
                       0  1  0   1  0  0   0  0  1       0 -1  0  -1  0  0   0  0 -1
                       0 -1  0   1  0  0   0  0 -1       0  1  0  -1  0  0   0  0  1
                       0 -1  0  -1  0  0   0  0  1       0  1  0   1  0  0   0  0 -1
                       0  1  0  -1  0  0   0  0 -1       0 -1  0   1  0  0   0  0  1
                       0  0  1   1  0  0   0  1  0       0  0 -1  -1  0  0   0 -1  0
                       0  0 -1   1  0  0   0 -1  0       0  0  1  -1  0  0   0  1  0
                       0  0 -1  -1  0  0   0  1  0       0  0  1   1  0  0   0 -1  0
                       0  0  1  -1  0  0   0 -1  0       0  0 -1   1  0  0   0  1  0
                       1  0  0   0  0  1   0  1  0      -1  0  0   0  0 -1   0 -1  0
                      -1  0  0   0  0  1   0 -1  0       1  0  0   0  0 -1   0  1  0
                      -1  0  0   0  0 -1   0  1  0       1  0  0   0  0  1   0 -1  0
                       1  0  0   0  0 -1   0 -1  0      -1  0  0   0  0  1   0  1  0
                       0  1  0   0  0  1   1  0  0       0 -1  0   0  0 -1  -1  0  0
                       0 -1  0   0  0  1  -1  0  0       0  1  0   0  0 -1   1  0  0
                       0 -1  0   0  0 -1   1  0  0       0  1  0   0  0  1  -1  0  0
                       0  1  0   0  0 -1  -1  0  0       0 -1  0   0  0  1   1  0  0
                       0  0  1   0  1  0   1  0  0       0  0 -1   0 -1  0  -1  0  0
                       0  0 -1   0  1  0  -1  0  0       0  0  1   0 -1  0   1  0  0
                       0  0 -1   0 -1  0   1  0  0       0  0  1   0  1  0  -1  0  0
                       0  0  1   0 -1  0  -1  0  0       0  0 -1   0  1  0   1  0  0
           tolvrs1     1.00000000E-10
           tolvrs2     0.00000000E+00
           tolvrs3     0.00000000E+00
           tolvrs4     0.00000000E+00
           tolwfr1     0.00000000E+00
           tolwfr2     1.00000000E-10
           tolwfr3     1.00000000E-10
           tolwfr4     1.00000000E-10
           tsmear      2.00000000E-03 Hartree
            typat      1  2  3  3  3
              wtk        0.01563    0.09375    0.04688    0.18750    0.18750    0.04688
                         0.12500    0.18750    0.09375    0.01563
           xangst      2.1461990946E-28  2.0215940308E-29 -1.0720576634E-28
                       2.6449026365E+00  2.6449026365E+00  2.6449026365E+00
                       2.6449026365E+00  2.6449026365E+00 -1.0720576634E-28
                       2.6449026365E+00  2.0215940308E-29  2.6449026365E+00
                       2.1461990946E-28  2.6449026365E+00  2.6449026365E+00
            xcart      4.0557285155E-28  3.8202590702E-29 -2.0258953826E-28
                       4.9981416311E+00  4.9981416311E+00  4.9981416311E+00
                       4.9981416311E+00  4.9981416311E+00 -2.0258953826E-28
                       4.9981416311E+00  3.8202590702E-29  4.9981416311E+00
                       4.0557285155E-28  4.9981416311E+00  4.9981416311E+00
             xred      4.0572364839E-29  3.8216794882E-30 -2.0266486347E-29
                       5.0000000000E-01  5.0000000000E-01  5.0000000000E-01
                       5.0000000000E-01  5.0000000000E-01 -2.0266486347E-29
                       5.0000000000E-01  3.8216794882E-30  5.0000000000E-01
                       4.0572364839E-29  5.0000000000E-01  5.0000000000E-01
            znucl       37.00000   32.00000   17.00000

- Timing analysis has been suppressed with timopt=0

 Suggested references for the acknowledgment of ABINIT usage.

 Calculation completed.
.Delivered   0 WARNINGs and   0 COMMENTs to log file.