.Version 7.6.4 of ABINIT

 ABINIT is a project of the Universite Catholique de Louvain,
 Corning Inc. and other collaborators, see ~abinit/doc/developers/contributors.txt .
 Please read ~abinit/doc/users/acknowledgments.html for suggested
 acknowledgments of the ABINIT effort.

.Starting date : Mon 30 Jun 2014.
- ( at 07h53 )

- input  file    -> CoO.in
- output file    -> CoO.outD
- root for input  files -> CoOin
- root for output files -> CoOout

 DATASET    1 : space group Fm -3 m (#225); Bravais cF (face-center cubic)
   intxc =         0  ionmov =         0    iscf =        17 xclevel =         2
  lmnmax =        18   lnmax =         6   mband =         9  mffmem =         1
P  mgfft =        30   mkmem =         6 mpssoang=         3     mpw =      1017
  mqgrid =      3001   natom =         2    nfft =     27000    nkpt =        60
  nloalg =         4  nspden =         2 nspinor =         1  nsppol =         2
    nsym =        48  n1xccc =         1  ntypat =         2  occopt =         3
Pmy_natom=         1
 PAW method is used; the additional fine FFT grid is defined by:
   mgfftf=        48    nfftf =    110592
  Rough estimation (10% accuracy) of disk space for files :

------------- Echo of variables that govern the present computation ------------
-
- outvars: echo of selected default values
-   accesswff0 =  0 , fftalg0 =112 , wfoptalg0 = 10
-
- outvars: echo of global parameters not present in the input file
-  max_nthreads =    0
-
 -outvars: echo values of preprocessed input variables --------
            acell      8.0000000000E+00  8.0000000000E+00  8.0000000000E+00 Bohr
              amu      5.89332000E+01  1.59994000E+01
      chksymbreak           0
         dmatpawu        1.00000    0.00000    0.00000    0.00000    0.00000
                         0.00000    1.00000    0.00000    0.00000    0.00000
                         0.00000    0.00000    1.00000    0.00000    0.00000
                         0.00000    0.00000    0.00000    1.00000    0.00000
                         0.00000    0.00000    0.00000    0.00000    1.00000
                         1.00000    0.00000    0.00000    0.00000    0.00000
                         0.00000    1.00000    0.00000    0.00000    0.00000
                         0.00000    0.00000    0.00000    0.00000    0.00000
                         0.00000    0.00000    0.00000    0.00000    0.00000
                         0.00000    0.00000    0.00000    0.00000    0.00000
             ecut      3.00000000E+01 Hartree
           iatsph1       1    2
              ixc          11
           jdtset        1
            jpawu      2.93994603E-02  0.00000000E+00
              kpt      6.25000000E-02  6.25000000E-02  6.25000000E-02
                       1.87500000E-01  6.25000000E-02  6.25000000E-02
                       3.12500000E-01  6.25000000E-02  6.25000000E-02
                       4.37500000E-01  6.25000000E-02  6.25000000E-02
                      -4.37500000E-01  6.25000000E-02  6.25000000E-02
                      -3.12500000E-01  6.25000000E-02  6.25000000E-02
                      -1.87500000E-01  6.25000000E-02  6.25000000E-02
                      -6.25000000E-02  6.25000000E-02  6.25000000E-02
                       1.87500000E-01  1.87500000E-01  6.25000000E-02
                       3.12500000E-01  1.87500000E-01  6.25000000E-02
                       4.37500000E-01  1.87500000E-01  6.25000000E-02
                      -4.37500000E-01  1.87500000E-01  6.25000000E-02
                      -3.12500000E-01  1.87500000E-01  6.25000000E-02
                      -1.87500000E-01  1.87500000E-01  6.25000000E-02
                      -6.25000000E-02  1.87500000E-01  6.25000000E-02
                       3.12500000E-01  3.12500000E-01  6.25000000E-02
                       4.37500000E-01  3.12500000E-01  6.25000000E-02
                      -4.37500000E-01  3.12500000E-01  6.25000000E-02
                      -3.12500000E-01  3.12500000E-01  6.25000000E-02
                      -1.87500000E-01  3.12500000E-01  6.25000000E-02
                      -6.25000000E-02  3.12500000E-01  6.25000000E-02
                       4.37500000E-01  4.37500000E-01  6.25000000E-02
                      -4.37500000E-01  4.37500000E-01  6.25000000E-02
                      -3.12500000E-01  4.37500000E-01  6.25000000E-02
                      -1.87500000E-01  4.37500000E-01  6.25000000E-02
                      -6.25000000E-02  4.37500000E-01  6.25000000E-02
                      -4.37500000E-01 -4.37500000E-01  6.25000000E-02
                      -3.12500000E-01 -4.37500000E-01  6.25000000E-02
                      -1.87500000E-01 -4.37500000E-01  6.25000000E-02
                      -3.12500000E-01 -3.12500000E-01  6.25000000E-02
                      -1.87500000E-01 -3.12500000E-01  6.25000000E-02
                      -1.87500000E-01 -1.87500000E-01  6.25000000E-02
                       1.87500000E-01  1.87500000E-01  1.87500000E-01
                       3.12500000E-01  1.87500000E-01  1.87500000E-01
                       4.37500000E-01  1.87500000E-01  1.87500000E-01
                      -4.37500000E-01  1.87500000E-01  1.87500000E-01
                      -3.12500000E-01  1.87500000E-01  1.87500000E-01
                      -1.87500000E-01  1.87500000E-01  1.87500000E-01
                       3.12500000E-01  3.12500000E-01  1.87500000E-01
                       4.37500000E-01  3.12500000E-01  1.87500000E-01
                      -4.37500000E-01  3.12500000E-01  1.87500000E-01
                      -3.12500000E-01  3.12500000E-01  1.87500000E-01
                      -1.87500000E-01  3.12500000E-01  1.87500000E-01
                       4.37500000E-01  4.37500000E-01  1.87500000E-01
                      -4.37500000E-01  4.37500000E-01  1.87500000E-01
                      -3.12500000E-01  4.37500000E-01  1.87500000E-01
                      -1.87500000E-01  4.37500000E-01  1.87500000E-01
                      -4.37500000E-01 -4.37500000E-01  1.87500000E-01
                      -3.12500000E-01 -4.37500000E-01  1.87500000E-01
                      -3.12500000E-01 -3.12500000E-01  1.87500000E-01
                       outvar_i_n : Printing only first  50 k-points.
           kptopt           4
         kptrlatt        8    0    0      0    8    0      0    0    8
          kptrlen      4.52548340E+01
            lpawu           2      -1
P           mkmem           6
            natom           2
           natsph        2
            nband           9
           ndtset           1
            ngfft          30      30      30
          ngfftdg          48      48      48
             nkpt          60
-           npkpt          20
           nspden           2
           nsppol           2
            nstep        1000
             nsym          48
           ntypat           2
              occ      1.000000  1.000000  1.000000  1.000000  1.000000  1.000000
                       1.000000  1.000000  0.000000
                       1.000000  1.000000  1.000000  1.000000  1.000000  1.000000
                       1.000000  1.000000  0.000000
                       1.000000  1.000000  1.000000  1.000000  1.000000  1.000000
                       1.000000  1.000000  0.000000
                       1.000000  1.000000  1.000000  1.000000  1.000000  1.000000
                       1.000000  1.000000  0.000000
                       1.000000  1.000000  1.000000  1.000000  1.000000  1.000000
                       1.000000  1.000000  0.000000
                       1.000000  1.000000  1.000000  1.000000  1.000000  1.000000
                       1.000000  1.000000  0.000000
                       1.000000  1.000000  1.000000  1.000000  1.000000  1.000000
                       1.000000  1.000000  0.000000
                       1.000000  1.000000  1.000000  1.000000  1.000000  1.000000
                       1.000000  1.000000  0.000000
                       1.000000  1.000000  1.000000  1.000000  1.000000  1.000000
                       1.000000  1.000000  0.000000
                       1.000000  1.000000  1.000000  1.000000  1.000000  1.000000
                       1.000000  1.000000  0.000000
                       1.000000  1.000000  1.000000  1.000000  1.000000  1.000000
                       1.000000  1.000000  0.000000
                       1.000000  1.000000  1.000000  1.000000  1.000000  1.000000
                       1.000000  1.000000  0.000000
                       1.000000  1.000000  1.000000  1.000000  1.000000  1.000000
                       1.000000  1.000000  0.000000
                       1.000000  1.000000  1.000000  1.000000  1.000000  1.000000
                       1.000000  1.000000  0.000000
                       1.000000  1.000000  1.000000  1.000000  1.000000  1.000000
                       1.000000  1.000000  0.000000
                       1.000000  1.000000  1.000000  1.000000  1.000000  1.000000
                       1.000000  1.000000  0.000000
                       1.000000  1.000000  1.000000  1.000000  1.000000  1.000000
                       1.000000  1.000000  0.000000
                       1.000000  1.000000  1.000000  1.000000  1.000000  1.000000
                       1.000000  1.000000  0.000000
                       1.000000  1.000000  1.000000  1.000000  1.000000  1.000000
                       1.000000  1.000000  0.000000
                       1.000000  1.000000  1.000000  1.000000  1.000000  1.000000
                       1.000000  1.000000  0.000000
                       1.000000  1.000000  1.000000  1.000000  1.000000  1.000000
                       1.000000  1.000000  0.000000
                       1.000000  1.000000  1.000000  1.000000  1.000000  1.000000
                       1.000000  1.000000  0.000000
                       1.000000  1.000000  1.000000  1.000000  1.000000  1.000000
                       1.000000  1.000000  0.000000
                       1.000000  1.000000  1.000000  1.000000  1.000000  1.000000
                       1.000000  1.000000  0.000000
                       1.000000  1.000000  1.000000  1.000000  1.000000  1.000000
                       1.000000  1.000000  0.000000
                       1.000000  1.000000  1.000000  1.000000  1.000000  1.000000
                       1.000000  1.000000  0.000000
                       1.000000  1.000000  1.000000  1.000000  1.000000  1.000000
                       1.000000  1.000000  0.000000
                       1.000000  1.000000  1.000000  1.000000  1.000000  1.000000
                       1.000000  1.000000  0.000000
                       1.000000  1.000000  1.000000  1.000000  1.000000  1.000000
                       1.000000  1.000000  0.000000
                       1.000000  1.000000  1.000000  1.000000  1.000000  1.000000
                       1.000000  1.000000  0.000000
                       1.000000  1.000000  1.000000  1.000000  1.000000  1.000000
[...]
                       1.000000  1.000000  0.000000
                       1.000000  1.000000  1.000000  1.000000  1.000000  1.000000
                       1.000000  1.000000  0.000000
[...]
                       0.962277  0.851934  0.768993
                       1.000000  0.999400  0.998985  0.998794  0.982484  0.982275
                       0.955200  0.759519  0.684519
                       1.000000  0.999545  0.999034  0.999018  0.981488  0.980763
                       0.951807  0.701518  0.688766
                       1.000000  0.999236  0.998779  0.998678  0.983964  0.982896
                       0.957942  0.772800  0.729577
                       1.000000  0.998526  0.997687  0.996722  0.987115  0.986776
                       0.963403  0.868621  0.825636
                       1.000000  0.997289  0.995944  0.991111  0.989282  0.988867
                       0.951361  0.924601  0.911464
                       1.000000  0.998442  0.995882  0.992264  0.989563  0.989312
                       0.952094  0.920770  0.902881
                       1.000000  0.999035  0.997372  0.994886  0.989148  0.987166
                       0.957527  0.916824  0.841954
                       1.000000  0.999269  0.998612  0.997935  0.986332  0.982481
                       0.957167  0.873522  0.783293
                       1.000000  0.999364  0.998897  0.998815  0.983932  0.980026
                       0.954725  0.840142  0.756330
                       1.000000  0.999340  0.998947  0.998222  0.985116  0.981720
                       0.955229  0.876381  0.717884
                       1.000000  0.999072  0.998537  0.995972  0.988607  0.985269
                       0.956473  0.915224  0.750341
                       1.000000  0.998479  0.997312  0.994134  0.989259  0.987539
                       0.959322  0.914998  0.841501
                       1.000000  0.999203  0.995610  0.993719  0.989825  0.988523
                       0.956610  0.929598  0.922096
                       1.000000  0.999124  0.997232  0.995616  0.988724  0.984329
                       0.961548  0.940836  0.910381
                       1.000000  0.998754  0.998461  0.997965  0.988015  0.978316
                       0.960925  0.938264  0.883587
                       1.000000  0.999128  0.998777  0.997672  0.988287  0.979260
                       0.956367  0.943331  0.801369
                       1.000000  0.999278  0.998906  0.997073  0.987940  0.982380
                       0.953525  0.926310  0.726543
                       1.000000  0.999122  0.998620  0.997805  0.985936  0.984224
                       0.959121  0.856530  0.745366
                       1.000000  0.998739  0.995171  0.994621  0.987965  0.983384
                       0.975411  0.959287  0.957364
                       1.000000  0.998049  0.996995  0.995859  0.990197  0.976610
                       0.971289  0.968880  0.954494
                       1.000000  0.998481  0.997977  0.997924  0.989677  0.976593
                       0.963050  0.959088  0.899746
                       1.000000  0.999211  0.998806  0.998472  0.985845  0.979463
                       0.956700  0.907967  0.786783
                       1.000000  0.999453  0.999000  0.998832  0.982821  0.980999
                       0.953726  0.781943  0.704909
                       1.000000  0.998066  0.995033  0.994832  0.989441  0.977905
                       0.977631  0.970505  0.969376
                       1.000000  0.998729  0.997093  0.995778  0.988782  0.981241
                       0.967604  0.957126  0.940067
                       1.000000  0.999157  0.998559  0.997976  0.986969  0.980456
                       0.958062  0.902646  0.844509
                       1.000000  0.999122  0.995390  0.994231  0.989060  0.986677
                       0.965314  0.942970  0.942327
                       1.000000  0.999213  0.997340  0.995343  0.988988  0.986213
[...]
                       0.958104  0.938722  0.854016
                       1.000000  0.999133  0.997660  0.997407  0.988410  0.981391
                       0.960198  0.908299  0.904897
                       1.000000  0.998708  0.998315  0.996749  0.988632  0.979608
                       0.962903  0.954194  0.906659
                       1.000000  0.998741  0.997788  0.997420  0.990039  0.975288
                       0.964373  0.963051  0.912333
                       1.000000  0.998870  0.998512  0.997388  0.988700  0.978274
                       0.960470  0.952591  0.878484
                       1.000000  0.998031  0.997497  0.997379  0.990376  0.975871
                       0.966869  0.964698  0.934398
                       1.000000  0.998268  0.997973  0.996792  0.990114  0.975669
                       0.966993  0.965858  0.929991
                       1.000000  0.998725  0.997566  0.997399  0.989060  0.978457
                       0.963795  0.947246  0.922994
                       prtocc : prtvol=0, do not print more k-points.
                       1.000000  0.998832  0.998634  0.998634  0.984383  0.984383
                       0.961159  0.767287  0.767287
                       1.000000  0.999267  0.998942  0.998070  0.985005  0.983191
                       0.956477  0.860577  0.692877
                       1.000000  0.999284  0.998927  0.997467  0.987932  0.980845
                       0.953605  0.933073  0.733449
                       1.000000  0.998870  0.998569  0.997867  0.988908  0.977962
                       0.959101  0.950757  0.844481
                       1.000000  0.999350  0.998812  0.998684  0.984385  0.981317
                       0.955762  0.788466  0.772456
                       1.000000  0.999224  0.998850  0.998288  0.985862  0.980090
                       0.956542  0.901901  0.791226
                       1.000000  0.998878  0.998310  0.997760  0.989049  0.977331
                       0.960611  0.954341  0.875097
                       1.000000  0.998991  0.998606  0.998538  0.986799  0.978644
                       0.958497  0.920546  0.831982
                       1.000000  0.999522  0.999015  0.999015  0.981370  0.981370
                       0.952714  0.681495  0.681495
                       1.000000  0.999467  0.998993  0.998887  0.982674  0.980567
                       0.953234  0.798044  0.704815
                       1.000000  0.954563  0.939090  0.939090  0.889852  0.889852
                       0.880809  0.140968  0.022161
                       1.000000  0.984490  0.965293  0.950660  0.883168  0.843549
                       0.836631  0.058525  0.016978
                       1.000000  0.996784  0.976838  0.969674  0.838885  0.793504
                       0.787903  0.017217  0.006946
                       1.000000  0.999000  0.982206  0.978961  0.785451  0.754876
                       0.731751  0.008098  0.003912
                       1.000000  0.999280  0.982937  0.981416  0.760294  0.752561
                       0.707223  0.006745  0.003789
                       1.000000  0.998631  0.978996  0.978695  0.806648  0.761722
                       0.750720  0.008866  0.006334
                       1.000000  0.994638  0.970178  0.968406  0.860679  0.808825
                       0.801866  0.024470  0.012774
                       1.000000  0.973536  0.955158  0.951321  0.898198  0.850488
                       0.849686  0.089343  0.021317
                       1.000000  0.986725  0.966389  0.965890  0.909352  0.802411
                       0.799684  0.052558  0.019825
                       1.000000  0.995124  0.980676  0.970581  0.896457  0.763896
                       0.755850  0.025508  0.013462
                       1.000000  0.998294  0.986512  0.978167  0.848089  0.740468
                       0.732638  0.011816  0.006626
                       1.000000  0.998985  0.988947  0.980793  0.785771  0.761888
                       0.715876  0.007917  0.004405
                       1.000000  0.998679  0.989264  0.978310  0.813571  0.743981
                       0.725524  0.010980  0.004071
                       1.000000  0.996784  0.986543  0.970429  0.863851  0.757564
                       0.750797  0.020597  0.006892
                       1.000000  0.991540  0.974650  0.961407  0.886302  0.806538
                       0.796994  0.036902  0.014871
                       1.000000  0.995972  0.978438  0.976162  0.932807  0.732062
                       0.731349  0.022093  0.016181
                       1.000000  0.997400  0.986709  0.978513  0.914321  0.732927
                       0.727090  0.014422  0.010460
                       1.000000  0.997956  0.993011  0.980418  0.860212  0.758261
                       0.726719  0.009512  0.006822
                       1.000000  0.997912  0.995175  0.979417  0.799827  0.789735
                       0.719305  0.010908  0.004516
                       1.000000  0.998054  0.992437  0.976445  0.833202  0.743148
                       0.723655  0.014300  0.004009
[...]
                       0.838647  0.038068  0.013475
                       1.000000  0.994989  0.981888  0.964099  0.866653  0.788286
                       0.780198  0.026524  0.007240
                       1.000000  0.997703  0.990241  0.973054  0.841488  0.744329
                       0.737195  0.017180  0.003983
                       1.000000  0.998773  0.991230  0.978930  0.793436  0.759481
                       0.718758  0.009995  0.003683
                       1.000000  0.998770  0.989258  0.980320  0.821890  0.750891
                       0.719043  0.007965  0.005734
                       1.000000  0.997569  0.984011  0.978024  0.884177  0.737364
                       0.736569  0.013391  0.010940
                       1.000000  0.996670  0.977524  0.975431  0.872976  0.766453
                       0.760066  0.017826  0.011881
                       1.000000  0.997569  0.989377  0.975780  0.868419  0.739267
                       0.729491  0.016319  0.006549
                       prtocc : prtvol=0, do not print more k-points.
           occopt           3
        optforces           0
        pawecutdg      8.00000000E+01 Hartree
           prtdos           3
            rprim      5.0000000000E-01  5.0000000000E-01  0.0000000000E+00
                       0.0000000000E+00  5.0000000000E-01  5.0000000000E-01
                       5.0000000000E-01  0.0000000000E+00  5.0000000000E-01
           shiftk      5.00000000E-01  5.00000000E-01  5.00000000E-01
          spgroup         225
           spinat      0.0000000000E+00  0.0000000000E+00  3.0000000000E+00
                       0.0000000000E+00  0.0000000000E+00  0.0000000000E+00
           strten1    -4.2592462460E-04 -4.2592462460E-04 -4.2592462460E-04
                       0.0000000000E+00  0.0000000000E+00  0.0000000000E+00
           symrel      1  0  0   0  1  0   0  0  1      -1  0  0   0 -1  0   0  0 -1
                       0 -1  1   0 -1  0   1 -1  0       0  1 -1   0  1  0  -1  1  0
                      -1  0  0  -1  0  1  -1  1  0       1  0  0   1  0 -1   1 -1  0
                       0  1 -1   1  0 -1   0  0 -1       0 -1  1  -1  0  1   0  0  1
                      -1  0  0  -1  1  0  -1  0  1       1  0  0   1 -1  0   1  0 -1
                       0 -1  1   1 -1  0   0 -1  0       0  1 -1  -1  1  0   0  1  0
                       1  0  0   0  0  1   0  1  0      -1  0  0   0  0 -1   0 -1  0
                       0  1 -1   0  0 -1   1  0 -1       0 -1  1   0  0  1  -1  0  1
                      -1  0  1  -1  1  0  -1  0  0       1  0 -1   1 -1  0   1  0  0
                       0 -1  0   1 -1  0   0 -1  1       0  1  0  -1  1  0   0  1 -1
                       1  0 -1   0  0 -1   0  1 -1      -1  0  1   0  0  1   0 -1  1
                       0  1  0   0  0  1   1  0  0       0 -1  0   0  0 -1  -1  0  0
                       1  0 -1   0  1 -1   0  0 -1      -1  0  1   0 -1  1   0  0  1
                       0 -1  0   0 -1  1   1 -1  0       0  1  0   0  1 -1  -1  1  0
                      -1  0  1  -1  0  0  -1  1  0       1  0 -1   1  0  0   1 -1  0
                       0  1  0   1  0  0   0  0  1       0 -1  0  -1  0  0   0  0 -1
                       0  0 -1   0  1 -1   1  0 -1       0  0  1   0 -1  1  -1  0  1
                       1 -1  0   0 -1  1   0 -1  0      -1  1  0   0  1 -1   0  1  0
                       0  0  1   1  0  0   0  1  0       0  0 -1  -1  0  0   0 -1  0
                      -1  1  0  -1  0  0  -1  0  1       1 -1  0   1  0  0   1  0 -1
                       0  0  1   0  1  0   1  0  0       0  0 -1   0 -1  0  -1  0  0
                       1 -1  0   0 -1  0   0 -1  1      -1  1  0   0  1  0   0  1 -1
                       0  0 -1   1  0 -1   0  1 -1       0  0  1  -1  0  1   0 -1  1
                      -1  1  0  -1  0  1  -1  0  0       1 -1  0   1  0 -1   1  0  0
           tolvrs      1.00000000E-06
            typat      1  2
            upawu      2.93994603E-01  0.00000000E+00
        usedmatpu          10
          usepawu           1
           useylm           1
              wtk        0.00391    0.01172    0.01172    0.01172    0.01172    0.01172
                         0.01172    0.01172    0.01172    0.02344    0.02344    0.02344
                         0.02344    0.02344    0.02344    0.01172    0.02344    0.02344
                         0.02344    0.02344    0.02344    0.01172    0.02344    0.02344
                         0.02344    0.02344    0.01172    0.02344    0.02344    0.01172
                         0.02344    0.01172    0.00391    0.01172    0.01172    0.01172
                         0.01172    0.01172    0.01172    0.02344    0.02344    0.02344
                         0.02344    0.01172    0.02344    0.02344    0.02344    0.01172
                         0.02344    0.01172
                       outvars : Printing only first  50 k-points.
           xangst      0.0000000000E+00  0.0000000000E+00  0.0000000000E+00
                       2.1167088344E+00  2.1167088344E+00  2.1167088344E+00
            xcart      0.0000000000E+00  0.0000000000E+00  0.0000000000E+00
                       4.0000000000E+00  4.0000000000E+00  4.0000000000E+00
             xred      0.0000000000E+00  0.0000000000E+00  0.0000000000E+00
                       5.0000000000E-01  5.0000000000E-01  5.0000000000E-01
            znucl       27.00000    8.00000

- Timing analysis has been suppressed with timopt=0

 Suggested references for the acknowledgment of ABINIT usage.

 [1] Gamma and beta cerium: LDA+U calculations of ground-state parameters.
 B. Amadon, F. Jollet and M. Torrent, Phys. Rev. B 77, 155104 (2008).
 Comment : LDA+U calculations, usepawu/=0. Strong suggestion to cite this paper.

 [2] Implementation of the Projector Augmented-Wave Method in the ABINIT code.
 M. Torrent, F. Jollet, F. Bottin, G. Zerah, and X. Gonze Comput. Mat. Science 42, 337, (2008).
 Comment : PAW calculations. Strong suggestion to cite this paper.

 [3] ABINIT : First-principles approach of materials and nanosystem properties.
 X. Gonze, B. Amadon, P.-M. Anglade, J.-M. Beuken, F. Bottin, P. Boulanger, F. Bruneval,
 D. Caliste, R. Caracas, M. Cote, T. Deutsch, L. Genovese, Ph. Ghosez, M. Giantomassi
 S. Goedecker, D.R. Hamann, P. Hermet, F. Jollet, G. Jomard, S. Leroux, M. Mancini, S. Mazevet,
 M.J.T. Oliveira, G. Onida, Y. Pouillon, T. Rangel, G.-M. Rignanese, D. Sangalli, R. Shaltaf,
 M. Torrent, M.J. Verstraete, G. Zerah, J.W. Zwanziger
 Computer Phys. Comm. 180, 2582-2615 (2009).
 Comment : the third generic paper describing the ABINIT project.
 Note that a version of this paper, that is not formatted for Computer Phys. Comm.
 The licence allows the authors to put it on the Web.

 [4] A brief introduction to the ABINIT software package.
 X. Gonze, G.-M. Rignanese, M. Verstraete, J.-M. Beuken, Y. Pouillon, R. Caracas, F. Jollet,
 M. Torrent, G. Zerah, M. Mikami, Ph. Ghosez, M. Veithen, J.-Y. Raty, V. Olevano, F. Bruneval,
 L. Reining, R. Godby, G. Onida, D.R. Hamann, and D.C. Allan.
 Z. Kristallogr. 220, 558-562 (2005).
 Comment : the second generic paper describing the ABINIT project. Note that this paper
 should be cited especially if you are using the GW part of ABINIT, as several authors
 of this part are not in the list of authors of the first or third paper.
 Note that it should not redistributed (Copyright by Oldenburg Wissenshaftverlag,
 the licence allows the authors to put it on the Web).

 And optionally :

 [5] First-principles computation of material properties : the ABINIT software project.
 X. Gonze, J.-M. Beuken, R. Caracas, F. Detraux, M. Fuchs, G.-M. Rignanese, L. Sindic,
 M. Verstraete, G. Zerah, F. Jollet, M. Torrent, A. Roy, M. Mikami, Ph. Ghosez, J.-Y. Raty, D.C. Allan.
 Comment : the original paper describing the ABINIT project.
-

 Calculation completed.
.Delivered    1 WARNINGs and   0 COMMENTs to log file.