.Version 8.0.8 of ABINIT

 ABINIT is a project of the Universite Catholique de Louvain,
 Corning Inc. and other collaborators, see ~abinit/doc/developers/contributors.txt .
 Please read ~abinit/doc/users/acknowledgments.html for suggested
 acknowledgments of the ABINIT effort.

.Starting date : Thu  2 Mar 2017.
- ( at 13h48 )

- input  file    -> si2_ef.in
- output file    -> si2_ef.out
- root for input  files -> si2_efi
- root for output files -> si2_efo

 DATASET    1 : space group Fd -3 m (#227); Bravais cF (face-center cubic)
     intxc =       0    ionmov =       0      iscf =       7    lmnmax =       2
     lnmax =       2     mgfft =      24  mpssoang =       3    mqgrid =    3001
     natom =       2  nloc_mem =       1    nspden =       1   nspinor =       1
    nsppol =       1      nsym =      48    n1xccc =    2501    ntypat =       1
    occopt =       1   xclevel =       1
-    mband =           4        mffmem =           1         mkmem =          23
       mpw =         419          nfft =       13824          nkpt =         182
  Rough estimation (10% accuracy) of disk space for files :

 DATASET    2 : space group P1 (#  1); Bravais aP (primitive triclinic)
     intxc =       0    ionmov =       0      iscf =       7    lmnmax =       2
     lnmax =       2     mgfft =      24  mpssoang =       3    mqgrid =    3001
     natom =       2  nloc_mem =       1    nspden =       1   nspinor =       1
    nsppol =       1      nsym =       1    n1xccc =    2501    ntypat =       1
    occopt =       1   xclevel =       1
-    mband =           4        mffmem =           1         mkmem =         432
       mpw =         419          nfft =       13824          nkpt =        3456
  Rough estimation (10% accuracy) of disk space for files :

[...]

 DATASET    7 : space group P1 (#  1); Bravais aP (primitive triclinic)
     intxc =       0    ionmov =       0      iscf =       7    lmnmax =       2
     lnmax =       2     mgfft =      24  mpssoang =       3    mqgrid =    3001
     natom =       2  nloc_mem =       1    nspden =       1   nspinor =       1
    nsppol =       1      nsym =       1    n1xccc =    2501    ntypat =       1
    occopt =       1   xclevel =       1
-    mband =           4        mffmem =           1         mkmem =         432
       mpw =         419          nfft =       13824          nkpt =        3456
  Rough estimation (10% accuracy) of disk space for files :

------------- Echo of variables that govern the present computation ------------
-
- outvars: echo of selected default values
-   iomode0 =  0 , fftalg0 =112 , wfoptalg0 =  0
-
- outvars: echo of global parameters not present in the input file
-  max_nthreads =    0
-
 -outvars: echo values of preprocessed input variables --------
            acell      1.0261212902E+01  1.0261212902E+01  1.0261212902E+01 Bohr
              amu      2.80855000E+01
         berryopt1         -1
         berryopt2          4
         berryopt3          4
         berryopt4          4
         berryopt5          4
         berryopt6          4
         berryopt7          4
           diemac      1.20000000E+01
             ecut      1.00000000E+01 Hartree
           efield1     0.00000000E+00  0.00000000E+00  0.00000000E+00
           efield2     1.00000000E-03  0.00000000E+00  0.00000000E+00
           efield3    -1.00000000E-03  0.00000000E+00  0.00000000E+00
           efield4     0.00000000E+00  1.00000000E-03  0.00000000E+00
           efield5     0.00000000E+00 -1.00000000E-03  0.00000000E+00
           efield6     0.00000000E+00  0.00000000E+00  1.00000000E-03
           efield7     0.00000000E+00  0.00000000E+00 -1.00000000E-03
-          fftalg         112
           getwfk1          0
           getwfk2          1
           getwfk3          1
           getwfk4          1
           getwfk5          1
           getwfk6          1
           getwfk7          1
              ixc           7
           jdtset        1    2    3    4    5    6    7
              kpt1    -4.16666667E-02 -8.33333333E-02  0.00000000E+00
                      -4.16666667E-02 -1.66666667E-01  0.00000000E+00
                      -8.33333333E-02 -1.25000000E-01  0.00000000E+00
                      -4.16666667E-02 -1.25000000E-01  4.16666667E-02
                      -4.16666667E-02 -2.50000000E-01  0.00000000E+00
                      -8.33333333E-02 -2.08333333E-01  0.00000000E+00
                      -4.16666667E-02 -2.08333333E-01  4.16666667E-02
                      -1.25000000E-01 -1.66666667E-01  0.00000000E+00
                      -8.33333333E-02 -1.66666667E-01  4.16666667E-02
                      -4.16666667E-02 -1.66666667E-01  8.33333333E-02
                      -4.16666667E-02 -3.33333333E-01  0.00000000E+00
                      -8.33333333E-02 -2.91666667E-01  0.00000000E+00
                      -4.16666667E-02 -2.91666667E-01  4.16666667E-02
                      -1.25000000E-01 -2.50000000E-01  0.00000000E+00
                      -8.33333333E-02 -2.50000000E-01  4.16666667E-02
                      -4.16666667E-02 -2.50000000E-01  8.33333333E-02
                      -1.66666667E-01 -2.08333333E-01  0.00000000E+00
                      -1.25000000E-01 -2.08333333E-01  4.16666667E-02
                      -8.33333333E-02 -2.08333333E-01  8.33333333E-02
                      -4.16666667E-02 -2.08333333E-01  1.25000000E-01
                      -4.16666667E-02 -4.16666667E-01  0.00000000E+00
                      -8.33333333E-02 -3.75000000E-01  0.00000000E+00
                      -4.16666667E-02 -3.75000000E-01  4.16666667E-02
                      -1.25000000E-01 -3.33333333E-01  0.00000000E+00
                      -8.33333333E-02 -3.33333333E-01  4.16666667E-02
                      -4.16666667E-02 -3.33333333E-01  8.33333333E-02
                      -1.66666667E-01 -2.91666667E-01  0.00000000E+00
                      -1.25000000E-01 -2.91666667E-01  4.16666667E-02
                      -8.33333333E-02 -2.91666667E-01  8.33333333E-02
                      -4.16666667E-02 -2.91666667E-01  1.25000000E-01
                      -2.08333333E-01 -2.50000000E-01  0.00000000E+00
                      -1.66666667E-01 -2.50000000E-01  4.16666667E-02
                      -1.25000000E-01 -2.50000000E-01  8.33333333E-02
                      -8.33333333E-02 -2.50000000E-01  1.25000000E-01
                      -4.16666667E-02 -2.50000000E-01  1.66666667E-01
                      -4.16666667E-02  5.00000000E-01  0.00000000E+00
                      -8.33333333E-02 -4.58333333E-01  0.00000000E+00
                      -4.16666667E-02 -4.58333333E-01  4.16666667E-02
                      -1.25000000E-01 -4.16666667E-01  0.00000000E+00
                      -8.33333333E-02 -4.16666667E-01  4.16666667E-02
                      -4.16666667E-02 -4.16666667E-01  8.33333333E-02
                      -1.66666667E-01 -3.75000000E-01  0.00000000E+00
                      -1.25000000E-01 -3.75000000E-01  4.16666667E-02
                      -8.33333333E-02 -3.75000000E-01  8.33333333E-02
                      -4.16666667E-02 -3.75000000E-01  1.25000000E-01
                      -2.08333333E-01 -3.33333333E-01  0.00000000E+00
                      -1.66666667E-01 -3.33333333E-01  4.16666667E-02
                      -1.25000000E-01 -3.33333333E-01  8.33333333E-02
                      -8.33333333E-02 -3.33333333E-01  1.25000000E-01
                      -4.16666667E-02 -3.33333333E-01  1.66666667E-01
              kpt2    -4.16666667E-02 -8.33333333E-02  0.00000000E+00
                      -8.33333333E-02 -4.16666667E-02  0.00000000E+00
                      -4.16666667E-02 -4.16666667E-02  4.16666667E-02
                      -4.16666667E-02 -1.66666667E-01  0.00000000E+00
                      -8.33333333E-02 -1.25000000E-01  0.00000000E+00
                      -4.16666667E-02 -1.25000000E-01  4.16666667E-02
                      -1.25000000E-01 -8.33333333E-02  0.00000000E+00
                      -8.33333333E-02 -8.33333333E-02  4.16666667E-02
                      -4.16666667E-02 -8.33333333E-02  8.33333333E-02
                      -1.66666667E-01 -4.16666667E-02  0.00000000E+00
                      -1.25000000E-01 -4.16666667E-02  4.16666667E-02
                      -8.33333333E-02 -4.16666667E-02  8.33333333E-02
                      -4.16666667E-02 -4.16666667E-02  1.25000000E-01
                      -4.16666667E-02 -2.50000000E-01  0.00000000E+00
                      -8.33333333E-02 -2.08333333E-01  0.00000000E+00
                      -4.16666667E-02 -2.08333333E-01  4.16666667E-02
                      -1.25000000E-01 -1.66666667E-01  0.00000000E+00
                      -8.33333333E-02 -1.66666667E-01  4.16666667E-02
                      -4.16666667E-02 -1.66666667E-01  8.33333333E-02
                      -1.66666667E-01 -1.25000000E-01  0.00000000E+00
                      -1.25000000E-01 -1.25000000E-01  4.16666667E-02
                      -8.33333333E-02 -1.25000000E-01  8.33333333E-02
                      -4.16666667E-02 -1.25000000E-01  1.25000000E-01
                      -2.08333333E-01 -8.33333333E-02  0.00000000E+00
                      -1.66666667E-01 -8.33333333E-02  4.16666667E-02
                      -1.25000000E-01 -8.33333333E-02  8.33333333E-02
                      -8.33333333E-02 -8.33333333E-02  1.25000000E-01
                      -4.16666667E-02 -8.33333333E-02  1.66666667E-01
                      -2.50000000E-01 -4.16666667E-02  0.00000000E+00
                      -2.08333333E-01 -4.16666667E-02  4.16666667E-02
                      -1.66666667E-01 -4.16666667E-02  8.33333333E-02
                      -1.25000000E-01 -4.16666667E-02  1.25000000E-01
                      -8.33333333E-02 -4.16666667E-02  1.66666667E-01
                      -4.16666667E-02 -4.16666667E-02  2.08333333E-01
                      -4.16666667E-02 -3.33333333E-01  0.00000000E+00
                      -8.33333333E-02 -2.91666667E-01  0.00000000E+00
                      -4.16666667E-02 -2.91666667E-01  4.16666667E-02
                      -1.25000000E-01 -2.50000000E-01  0.00000000E+00
                      -8.33333333E-02 -2.50000000E-01  4.16666667E-02
                      -4.16666667E-02 -2.50000000E-01  8.33333333E-02
                      -1.66666667E-01 -2.08333333E-01  0.00000000E+00
                      -1.25000000E-01 -2.08333333E-01  4.16666667E-02
                      -8.33333333E-02 -2.08333333E-01  8.33333333E-02
                      -4.16666667E-02 -2.08333333E-01  1.25000000E-01
                      -2.08333333E-01 -1.66666667E-01  0.00000000E+00
                      -1.66666667E-01 -1.66666667E-01  4.16666667E-02
                      -1.25000000E-01 -1.66666667E-01  8.33333333E-02
                      -8.33333333E-02 -1.66666667E-01  1.25000000E-01
                      -4.16666667E-02 -1.66666667E-01  1.66666667E-01
                      -2.50000000E-01 -1.25000000E-01  0.00000000E+00
              kpt3    -4.16666667E-02 -8.33333333E-02  0.00000000E+00
                      -8.33333333E-02 -4.16666667E-02  0.00000000E+00
[...]
                      -1.66666667E-01 -8.33333333E-02  4.16666667E-02
                      -1.25000000E-01 -8.33333333E-02  8.33333333E-02
                      -8.33333333E-02 -8.33333333E-02  1.25000000E-01
                      -4.16666667E-02 -8.33333333E-02  1.66666667E-01
                      -2.50000000E-01 -4.16666667E-02  0.00000000E+00
                      -2.08333333E-01 -4.16666667E-02  4.16666667E-02
                      -1.66666667E-01 -4.16666667E-02  8.33333333E-02
                      -1.25000000E-01 -4.16666667E-02  1.25000000E-01
                      -8.33333333E-02 -4.16666667E-02  1.66666667E-01
                      -4.16666667E-02 -4.16666667E-02  2.08333333E-01
                      -4.16666667E-02 -3.33333333E-01  0.00000000E+00
                      -8.33333333E-02 -2.91666667E-01  0.00000000E+00
                      -4.16666667E-02 -2.91666667E-01  4.16666667E-02
                      -1.25000000E-01 -2.50000000E-01  0.00000000E+00
                      -8.33333333E-02 -2.50000000E-01  4.16666667E-02
                      -4.16666667E-02 -2.50000000E-01  8.33333333E-02
                      -1.66666667E-01 -2.08333333E-01  0.00000000E+00
                      -1.25000000E-01 -2.08333333E-01  4.16666667E-02
                      -8.33333333E-02 -2.08333333E-01  8.33333333E-02
                      -4.16666667E-02 -2.08333333E-01  1.25000000E-01
                      -2.08333333E-01 -1.66666667E-01  0.00000000E+00
                      -1.66666667E-01 -1.66666667E-01  4.16666667E-02
                      -1.25000000E-01 -1.66666667E-01  8.33333333E-02
                      -8.33333333E-02 -1.66666667E-01  1.25000000E-01
                      -4.16666667E-02 -1.66666667E-01  1.66666667E-01
                      -2.50000000E-01 -1.25000000E-01  0.00000000E+00
                       outvar_i_n : Printing only first  50 k-points.
         kptrlatt       12  -12   12    -12   12   12    -12  -12   12
          kptrlen      1.23134555E+02
P           mkmem1         23
P           mkmem2        432
P           mkmem3        432
P           mkmem4        432
P           mkmem5        432
P           mkmem6        432
P           mkmem7        432
            natom           2
            nband1          4
            nband2          4
            nband3          4
            nband4          4
            nband5          4
            nband6          4
            nband7          4
           ndtset           7
            ngfft          24      24      24
             nkpt1        182
             nkpt2       3456
             nkpt3       3456
             nkpt4       3456
             nkpt5       3456
             nkpt6       3456
             nkpt7       3456
            nstep         100
             nsym1         48
             nsym2          1
             nsym3          1
             nsym4          1
             nsym5          1
             nsym6          1
             nsym7          1
           ntypat           1
              occ1     2.000000  2.000000  2.000000  2.000000
              occ2     2.000000  2.000000  2.000000  2.000000
              occ3     2.000000  2.000000  2.000000  2.000000
              occ4     2.000000  2.000000  2.000000  2.000000
              occ5     2.000000  2.000000  2.000000  2.000000
              occ6     2.000000  2.000000  2.000000  2.000000
              occ7     2.000000  2.000000  2.000000  2.000000
            rfdir1          1       1       1
            rfdir2          0       0       0
            rfdir3          0       0       0
            rfdir4          0       0       0
            rfdir5          0       0       0
            rfdir6          0       0       0
            rfdir7          0       0       0
            rprim      0.0000000000E+00  5.0000000000E-01  5.0000000000E-01
                       5.0000000000E-01  0.0000000000E+00  5.0000000000E-01
                       5.0000000000E-01  5.0000000000E-01  0.0000000000E+00
           shiftk      5.00000000E-01  5.00000000E-01  5.00000000E-01
          spgroup1        227
          spgroup2          1
          spgroup3          1
          spgroup4          1
          spgroup5          1
          spgroup6          1
          spgroup7          1
           strten1     7.4962291628E-05  7.4962291628E-05  7.4962291628E-05
                       0.0000000000E+00  0.0000000000E+00  0.0000000000E+00
           strten2     7.4766932065E-05  7.4578057585E-05  7.4578052212E-05
                       1.0421334072E-08  1.5614176713E-12 -6.5929223646E-12
           strten3     7.4766932158E-05  7.4578057676E-05  7.4578052129E-05
                       1.0421256466E-08  1.3658266687E-12 -6.8022371454E-12
           strten4     7.4578054535E-05  7.4766933167E-05  7.4578051449E-05
                      -4.0135039426E-12  1.0432675504E-08 -5.8858672809E-12
           strten5     7.4578054635E-05  7.4766933340E-05  7.4578051656E-05
                      -4.1749532173E-12  1.0432608718E-08 -5.7566956502E-12
           strten6     7.4578017246E-05  7.4578011725E-05  7.4766904673E-05
                       1.9846537602E-11 -3.5729527856E-12  1.0514896264E-08
           strten7     7.4578017341E-05  7.4578011851E-05  7.4766904541E-05
                       1.9956278823E-11 -3.5661780844E-12  1.0514601127E-08
           symafm1       1    1    1    1    1    1    1    1    1    1
                         1    1    1    1    1    1    1    1    1    1
                         1    1    1    1    1    1    1    1    1    1
                         1    1    1    1    1    1    1    1    1    1
                         1    1    1    1    1    1    1    1
           symafm2       1
           symafm3       1
           symafm4       1
           symafm5       1
           symafm6       1
           symafm7       1
           symrel1     1  0  0   0  1  0   0  0  1      -1  0  0   0 -1  0   0  0 -1
                       0 -1  1   0 -1  0   1 -1  0       0  1 -1   0  1  0  -1  1  0
                      -1  0  0  -1  0  1  -1  1  0       1  0  0   1  0 -1   1 -1  0
                       0  1 -1   1  0 -1   0  0 -1       0 -1  1  -1  0  1   0  0  1
                      -1  0  0  -1  1  0  -1  0  1       1  0  0   1 -1  0   1  0 -1
                       0 -1  1   1 -1  0   0 -1  0       0  1 -1  -1  1  0   0  1  0
                       1  0  0   0  0  1   0  1  0      -1  0  0   0  0 -1   0 -1  0
                       0  1 -1   0  0 -1   1  0 -1       0 -1  1   0  0  1  -1  0  1
                      -1  0  1  -1  1  0  -1  0  0       1  0 -1   1 -1  0   1  0  0
                       0 -1  0   1 -1  0   0 -1  1       0  1  0  -1  1  0   0  1 -1
                       1  0 -1   0  0 -1   0  1 -1      -1  0  1   0  0  1   0 -1  1
                       0  1  0   0  0  1   1  0  0       0 -1  0   0  0 -1  -1  0  0
                       1  0 -1   0  1 -1   0  0 -1      -1  0  1   0 -1  1   0  0  1
                       0 -1  0   0 -1  1   1 -1  0       0  1  0   0  1 -1  -1  1  0
                      -1  0  1  -1  0  0  -1  1  0       1  0 -1   1  0  0   1 -1  0
                       0  1  0   1  0  0   0  0  1       0 -1  0  -1  0  0   0  0 -1
                       0  0 -1   0  1 -1   1  0 -1       0  0  1   0 -1  1  -1  0  1
                       1 -1  0   0 -1  1   0 -1  0      -1  1  0   0  1 -1   0  1  0
                       0  0  1   1  0  0   0  1  0       0  0 -1  -1  0  0   0 -1  0
                      -1  1  0  -1  0  0  -1  0  1       1 -1  0   1  0  0   1  0 -1
                       0  0  1   0  1  0   1  0  0       0  0 -1   0 -1  0  -1  0  0
                       1 -1  0   0 -1  0   0 -1  1      -1  1  0   0  1  0   0  1 -1
                       0  0 -1   1  0 -1   0  1 -1       0  0  1  -1  0  1   0 -1  1
                      -1  1  0  -1  0  1  -1  0  0       1 -1  0   1  0 -1   1  0  0
           symrel2     1  0  0   0  1  0   0  0  1
           symrel3     1  0  0   0  1  0   0  0  1
           symrel4     1  0  0   0  1  0   0  0  1
           symrel5     1  0  0   0  1  0   0  0  1
           symrel6     1  0  0   0  1  0   0  0  1
           symrel7     1  0  0   0  1  0   0  0  1
            tnons1     0.0000000  0.0000000  0.0000000     0.2500000  0.2500000  0.2500000
                       0.0000000  0.0000000  0.0000000     0.2500000  0.2500000  0.2500000
                       0.0000000  0.0000000  0.0000000     0.2500000  0.2500000  0.2500000
                       0.0000000  0.0000000  0.0000000     0.2500000  0.2500000  0.2500000
                       0.0000000  0.0000000  0.0000000     0.2500000  0.2500000  0.2500000
                       0.0000000  0.0000000  0.0000000     0.2500000  0.2500000  0.2500000
                       0.0000000  0.0000000  0.0000000     0.2500000  0.2500000  0.2500000
                       0.0000000  0.0000000  0.0000000     0.2500000  0.2500000  0.2500000
                       0.0000000  0.0000000  0.0000000     0.2500000  0.2500000  0.2500000
                       0.0000000  0.0000000  0.0000000     0.2500000  0.2500000  0.2500000
                       0.0000000  0.0000000  0.0000000     0.2500000  0.2500000  0.2500000
                       0.0000000  0.0000000  0.0000000     0.2500000  0.2500000  0.2500000
                       0.0000000  0.0000000  0.0000000     0.2500000  0.2500000  0.2500000
                       0.0000000  0.0000000  0.0000000     0.2500000  0.2500000  0.2500000
                       0.0000000  0.0000000  0.0000000     0.2500000  0.2500000  0.2500000
                       0.0000000  0.0000000  0.0000000     0.2500000  0.2500000  0.2500000
                       0.0000000  0.0000000  0.0000000     0.2500000  0.2500000  0.2500000
                       0.0000000  0.0000000  0.0000000     0.2500000  0.2500000  0.2500000
                       0.0000000  0.0000000  0.0000000     0.2500000  0.2500000  0.2500000
                       0.0000000  0.0000000  0.0000000     0.2500000  0.2500000  0.2500000
                       0.0000000  0.0000000  0.0000000     0.2500000  0.2500000  0.2500000
                       0.0000000  0.0000000  0.0000000     0.2500000  0.2500000  0.2500000
                       0.0000000  0.0000000  0.0000000     0.2500000  0.2500000  0.2500000
                       0.0000000  0.0000000  0.0000000     0.2500000  0.2500000  0.2500000
            tnons2     0.0000000  0.0000000  0.0000000
            tnons3     0.0000000  0.0000000  0.0000000
            tnons4     0.0000000  0.0000000  0.0000000
            tnons5     0.0000000  0.0000000  0.0000000
            tnons6     0.0000000  0.0000000  0.0000000
            tnons7     0.0000000  0.0000000  0.0000000
           toldfe      1.00000000E-12 Hartree
            typat      1  1
              wtk1       0.00347    0.00347    0.00347    0.00694    0.00347    0.00347
                         0.00694    0.00347    0.00694    0.00694    0.00347    0.00347
                         0.00694    0.00347    0.00694    0.00694    0.00347    0.00694
                         0.00694    0.00694    0.00347    0.00347    0.00694    0.00347
                         0.00694    0.00694    0.00347    0.00694    0.00694    0.00694
                         0.00347    0.00694    0.00694    0.00694    0.00694    0.00347
                         0.00347    0.00694    0.00347    0.00694    0.00694    0.00347
                         0.00694    0.00694    0.00694    0.00347    0.00694    0.00694
                         0.00694    0.00694
              wtk2       0.00029    0.00029    0.00029    0.00029    0.00029    0.00029
                         0.00029    0.00029    0.00029    0.00029    0.00029    0.00029
                         0.00029    0.00029    0.00029    0.00029    0.00029    0.00029
                         0.00029    0.00029    0.00029    0.00029    0.00029    0.00029
                         0.00029    0.00029    0.00029    0.00029    0.00029    0.00029
                         0.00029    0.00029    0.00029    0.00029    0.00029    0.00029
                         0.00029    0.00029    0.00029    0.00029    0.00029    0.00029
                         0.00029    0.00029    0.00029    0.00029    0.00029    0.00029
                         0.00029    0.00029
              wtk3       0.00029    0.00029    0.00029    0.00029    0.00029    0.00029
                         0.00029    0.00029    0.00029    0.00029    0.00029    0.00029
                         0.00029    0.00029    0.00029    0.00029    0.00029    0.00029
                         0.00029    0.00029    0.00029    0.00029    0.00029    0.00029
                         0.00029    0.00029    0.00029    0.00029    0.00029    0.00029
                         0.00029    0.00029    0.00029    0.00029    0.00029    0.00029
                         0.00029    0.00029    0.00029    0.00029    0.00029    0.00029
                         0.00029    0.00029    0.00029    0.00029    0.00029    0.00029
                         0.00029    0.00029
              wtk4       0.00029    0.00029    0.00029    0.00029    0.00029    0.00029
                         0.00029    0.00029    0.00029    0.00029    0.00029    0.00029
                         0.00029    0.00029    0.00029    0.00029    0.00029    0.00029
                         0.00029    0.00029    0.00029    0.00029    0.00029    0.00029
                         0.00029    0.00029    0.00029    0.00029    0.00029    0.00029
                         0.00029    0.00029    0.00029    0.00029    0.00029    0.00029
                         0.00029    0.00029    0.00029    0.00029    0.00029    0.00029
                         0.00029    0.00029    0.00029    0.00029    0.00029    0.00029
                         0.00029    0.00029
              wtk5       0.00029    0.00029    0.00029    0.00029    0.00029    0.00029
                         0.00029    0.00029    0.00029    0.00029    0.00029    0.00029
                         0.00029    0.00029    0.00029    0.00029    0.00029    0.00029
                         0.00029    0.00029    0.00029    0.00029    0.00029    0.00029
                         0.00029    0.00029    0.00029    0.00029    0.00029    0.00029
                         0.00029    0.00029    0.00029    0.00029    0.00029    0.00029
                         0.00029    0.00029    0.00029    0.00029    0.00029    0.00029
                         0.00029    0.00029    0.00029    0.00029    0.00029    0.00029
                         0.00029    0.00029
              wtk6       0.00029    0.00029    0.00029    0.00029    0.00029    0.00029
                         0.00029    0.00029    0.00029    0.00029    0.00029    0.00029
                         0.00029    0.00029    0.00029    0.00029    0.00029    0.00029
                         0.00029    0.00029    0.00029    0.00029    0.00029    0.00029
                         0.00029    0.00029    0.00029    0.00029    0.00029    0.00029
                         0.00029    0.00029    0.00029    0.00029    0.00029    0.00029
                         0.00029    0.00029    0.00029    0.00029    0.00029    0.00029
                         0.00029    0.00029    0.00029    0.00029    0.00029    0.00029
                         0.00029    0.00029
              wtk7       0.00029    0.00029    0.00029    0.00029    0.00029    0.00029
                         0.00029    0.00029    0.00029    0.00029    0.00029    0.00029
                         0.00029    0.00029    0.00029    0.00029    0.00029    0.00029
                         0.00029    0.00029    0.00029    0.00029    0.00029    0.00029
                         0.00029    0.00029    0.00029    0.00029    0.00029    0.00029
                         0.00029    0.00029    0.00029    0.00029    0.00029    0.00029
                         0.00029    0.00029    0.00029    0.00029    0.00029    0.00029
                         0.00029    0.00029    0.00029    0.00029    0.00029    0.00029
                         0.00029    0.00029
                       outvars : Printing only first  50 k-points.
           xangst      0.0000000000E+00  0.0000000000E+00  0.0000000000E+00
                       1.3575000000E+00  1.3575000000E+00  1.3575000000E+00
            xcart      0.0000000000E+00  0.0000000000E+00  0.0000000000E+00
                       2.5653032254E+00  2.5653032254E+00  2.5653032254E+00
             xred      0.0000000000E+00  0.0000000000E+00  0.0000000000E+00
                       2.5000000000E-01  2.5000000000E-01  2.5000000000E-01
            znucl       14.00000

- Timing analysis has been suppressed with timopt=0

 Suggested references for the acknowledgment of ABINIT usage.

 Calculation completed.
.Delivered   0 WARNINGs and  26 COMMENTs to log file.