.Version 7.2.1 of ABINIT

 ABINIT is a project of the Universite Catholique de Louvain,
 Corning Inc. and other collaborators, see ~abinit/doc/developers/contributors.txt .
 Please read ~abinit/doc/users/acknowledgments.html for suggested
 acknowledgments of the ABINIT effort.

.Starting date : Tue 19 Jan 2016.
- ( at 13h46 )

- input  file    -> tbase4_1.in
- output file    -> tbase4_1.out
- root for input  files -> tbase4_1i
- root for output files -> tbase4_1o

 Magnetic group, Shubnikov type IV
 Fedorov space group P4/m m m (#123)
 Magnetic Bravais lattice tP_I (primitive tetrag., centered magnetic, #25)
   intxc =         0  ionmov =         2    iscf =        17 xclevel =         2
  lmnmax =        18   lnmax =         6   mband =        59  mffmem =         1
P  mgfft =       120   mkmem =         3 mpssoang=         3     mpw =      4345
  mqgrid =      9070   natom =        14    nfft =     77760    nkpt =         6
  nloalg =         4  nspden =         2 nspinor =         1  nsppol =         1
    nsym =        32  n1xccc =         1  ntypat =         3  occopt =         1
Pmy_natom=         7
 PAW method is used; the additional fine FFT grid is defined by:
   mgfftf=       192    nfftf =    345600
  Rough estimation (10% accuracy) of disk space for files :

------------- Echo of variables that govern the present computation ------------
-
- outvars: echo of selected default values
-   accesswff0 =  0 , fftalg0 =112 , wfoptalg0 = 10
-
- outvars: echo of global parameters not present in the input file
-  max_nthreads =    0
-
 -outvars: echo values of preprocessed input variables --------
            acell      7.2438563300E+00  7.2438563300E+00  2.3799621900E+01 Bohr
              amu      1.59994000E+01  5.09415000E+01  8.76200000E+01
          dilatmx      1.05000000E+00
             ecut      2.50000000E+01 Hartree
           ecutsm      5.00000000E-01 Hartree
           fftalg         401
      fft_opt_lob           2
           getwfk          -1
           ionmov           2
           iprcch           6
              ixc          11
            jpawu      0.00000000E+00  2.57245278E-02  0.00000000E+00
              kpt      1.25000000E-01  1.25000000E-01  1.25000000E-01
                       3.75000000E-01  1.25000000E-01  1.25000000E-01
                       3.75000000E-01  3.75000000E-01  1.25000000E-01
                       1.25000000E-01  1.25000000E-01  3.75000000E-01
                       3.75000000E-01  1.25000000E-01  3.75000000E-01
                       3.75000000E-01  3.75000000E-01  3.75000000E-01
         kptrlatt        4    0    0      0    4    0      0    0    4
          kptrlen      2.89754253E+01
            lpawu          -1       2      -1
P           mkmem           3
            natom          14
            nband          59
            ngfft          36      36     120
          ngfftdg          60      60     192
             nkpt           6
            npfft           2
-           npkpt           2
           nspden           2
            nstep        1000
             nsym          32
            ntime         100
           ntypat           3
              occ      2.000000  2.000000  2.000000  2.000000  2.000000  2.000000
                       2.000000  2.000000  2.000000  2.000000  2.000000  2.000000
                       2.000000  2.000000  2.000000  2.000000  2.000000  2.000000
                       2.000000  2.000000  2.000000  2.000000  2.000000  2.000000
                       2.000000  2.000000  2.000000  2.000000  2.000000  2.000000
                       2.000000  2.000000  2.000000  2.000000  2.000000  2.000000
                       2.000000  2.000000  2.000000  2.000000  2.000000  2.000000
                       2.000000  2.000000  2.000000  2.000000  2.000000  2.000000
                       2.000000  2.000000  2.000000  2.000000  2.000000  2.000000
                       2.000000  2.000000  2.000000  0.000000  0.000000
        paral_kgb           1
        pawecutdg      6.50000000E+01 Hartree
         pawmixdg           1
           prtden           0
        prtdensph           1
           prteig           0
           shiftk      5.00000000E-01  5.00000000E-01  5.00000000E-01
          spgroup         123
           spinat      0.0000000000E+00  0.0000000000E+00  0.0000000000E+00
                       0.0000000000E+00  0.0000000000E+00  0.0000000000E+00
                       0.0000000000E+00  0.0000000000E+00  0.0000000000E+00
                       0.0000000000E+00  0.0000000000E+00  0.0000000000E+00
                       0.0000000000E+00  0.0000000000E+00  0.0000000000E+00
                       0.0000000000E+00  0.0000000000E+00  0.0000000000E+00
                       0.0000000000E+00  0.0000000000E+00  0.0000000000E+00
                       0.0000000000E+00  0.0000000000E+00  0.0000000000E+00
                       0.0000000000E+00  0.0000000000E+00  5.0000000000E+00
                       0.0000000000E+00  0.0000000000E+00 -5.0000000000E+00
                       0.0000000000E+00  0.0000000000E+00  0.0000000000E+00
                       0.0000000000E+00  0.0000000000E+00  0.0000000000E+00
                       0.0000000000E+00  0.0000000000E+00  0.0000000000E+00
                       0.0000000000E+00  0.0000000000E+00  0.0000000000E+00
           symafm        1   -1    1   -1    1   -1    1   -1    1   -1
                         1   -1    1   -1    1   -1    1   -1    1   -1
                         1   -1    1   -1    1   -1    1   -1    1   -1
                         1   -1
           symrel      1  0  0   0  1  0   0  0  1       1  0  0   0  1  0   0  0  1
                      -1  0  0   0 -1  0   0  0 -1      -1  0  0   0 -1  0   0  0 -1
                      -1  0  0   0  1  0   0  0 -1      -1  0  0   0  1  0   0  0 -1
                       1  0  0   0 -1  0   0  0  1       1  0  0   0 -1  0   0  0  1
                      -1  0  0   0 -1  0   0  0  1      -1  0  0   0 -1  0   0  0  1
                       1  0  0   0  1  0   0  0 -1       1  0  0   0  1  0   0  0 -1
                       1  0  0   0 -1  0   0  0 -1       1  0  0   0 -1  0   0  0 -1
                      -1  0  0   0  1  0   0  0  1      -1  0  0   0  1  0   0  0  1
                       0  1  0   1  0  0   0  0  1       0  1  0   1  0  0   0  0  1
                       0 -1  0  -1  0  0   0  0 -1       0 -1  0  -1  0  0   0  0 -1
                       0 -1  0   1  0  0   0  0 -1       0 -1  0   1  0  0   0  0 -1
                       0  1  0  -1  0  0   0  0  1       0  1  0  -1  0  0   0  0  1
                       0 -1  0  -1  0  0   0  0  1       0 -1  0  -1  0  0   0  0  1
                       0  1  0   1  0  0   0  0 -1       0  1  0   1  0  0   0  0 -1
                       0  1  0  -1  0  0   0  0 -1       0  1  0  -1  0  0   0  0 -1
                       0 -1  0   1  0  0   0  0  1       0 -1  0   1  0  0   0  0  1
            tnons      0.0000000  0.0000000  0.0000000     0.5000000  0.5000000  0.5000000
                       0.0000000  0.0000000  0.0000000     0.5000000  0.5000000  0.5000000
                       0.0000000  0.0000000  0.0000000     0.5000000  0.5000000  0.5000000
                       0.0000000  0.0000000  0.0000000     0.5000000  0.5000000  0.5000000
                       0.0000000  0.0000000  0.0000000     0.5000000  0.5000000  0.5000000
                       0.0000000  0.0000000  0.0000000     0.5000000  0.5000000  0.5000000
                       0.0000000  0.0000000  0.0000000     0.5000000  0.5000000  0.5000000
                       0.0000000  0.0000000  0.0000000     0.5000000  0.5000000  0.5000000
                       0.0000000  0.0000000  0.0000000     0.5000000  0.5000000  0.5000000
                       0.0000000  0.0000000  0.0000000     0.5000000  0.5000000  0.5000000
                       0.0000000  0.0000000  0.0000000     0.5000000  0.5000000  0.5000000
                       0.0000000  0.0000000  0.0000000     0.5000000  0.5000000  0.5000000
                       0.0000000  0.0000000  0.0000000     0.5000000  0.5000000  0.5000000
                       0.0000000  0.0000000  0.0000000     0.5000000  0.5000000  0.5000000
                       0.0000000  0.0000000  0.0000000     0.5000000  0.5000000  0.5000000
                       0.0000000  0.0000000  0.0000000     0.5000000  0.5000000  0.5000000
           toldfe      1.00000000E-06 Hartree
           tsmear      5.00000000E-02 Hartree
            typat      1  1  1  1  1  1  1  1  2  2  3  3  3  3
            upawu      0.00000000E+00  1.54347167E-01  0.00000000E+00
          usepawu           1
           useylm           1
         wfoptalg          14
              wtk        0.12500    0.25000    0.12500    0.12500    0.25000    0.12500
           xangst      1.9166418361E+00  0.0000000000E+00  0.0000000000E+00
                       0.0000000000E+00  1.9166418361E+00  0.0000000000E+00
                       0.0000000000E+00  1.9166418361E+00  6.2971087413E+00
                       1.9166418361E+00  0.0000000000E+00  6.2971087413E+00
                       0.0000000000E+00  0.0000000000E+00  1.9874934609E+00
                       0.0000000000E+00  0.0000000000E+00  1.0606724022E+01
                       1.9166418361E+00  1.9166418361E+00  8.2846022022E+00
                       1.9166418361E+00  1.9166418361E+00  4.3096152804E+00
                       0.0000000000E+00  0.0000000000E+00  0.0000000000E+00
                       1.9166418361E+00  1.9166418361E+00  6.2971087413E+00
                       1.9166418361E+00  1.9166418361E+00  1.8243983445E+00
                       1.9166418361E+00  1.9166418361E+00  1.0769819138E+01
                       0.0000000000E+00  0.0000000000E+00  8.1215070858E+00
                       0.0000000000E+00  0.0000000000E+00  4.4727103967E+00
            xcart      3.6219281650E+00  0.0000000000E+00  0.0000000000E+00
                       0.0000000000E+00  3.6219281650E+00  0.0000000000E+00
                       0.0000000000E+00  3.6219281650E+00  1.1899810950E+01
                       3.6219281650E+00  0.0000000000E+00  1.1899810950E+01
                       0.0000000000E+00  0.0000000000E+00  3.7558183320E+00
                       0.0000000000E+00  0.0000000000E+00  2.0043803568E+01
                       3.6219281650E+00  3.6219281650E+00  1.5655629282E+01
                       3.6219281650E+00  3.6219281650E+00  8.1439926180E+00
                       0.0000000000E+00  0.0000000000E+00  0.0000000000E+00
                       3.6219281650E+00  3.6219281650E+00  1.1899810950E+01
                       3.6219281650E+00  3.6219281650E+00  3.4476132284E+00
                       3.6219281650E+00  3.6219281650E+00  2.0352008672E+01
                       0.0000000000E+00  0.0000000000E+00  1.5347424178E+01
                       0.0000000000E+00  0.0000000000E+00  8.4521977216E+00
             xred      5.0000000000E-01  0.0000000000E+00  0.0000000000E+00
                       0.0000000000E+00  5.0000000000E-01  0.0000000000E+00
                       0.0000000000E+00  5.0000000000E-01  5.0000000000E-01
[...]
,     Minimum=   -2.4265E-01  at reduced coord.    0.3667    0.3500    0.4531
,Next minimum=   -2.4265E-01  at reduced coord.    0.6333    0.3500    0.4531

 Components of total free energy (in Hartree) :

    Kinetic energy  =  1.35766964078580E+02
    Hartree energy  =  1.10474147700986E+02
    XC energy       = -8.61425645026121E+01
    Ewald energy    = -2.83381798764797E+02
    PspCore energy  =  1.07833582949584E+01
    Loc. psp. energy= -3.56071514002974E+02
    Spherical terms =  7.04973586702590E+01
    >>>>>>>>> Etotal= -3.98074048525601E+02

 "Double-counting" decomposition of free energy:
    Band energy     = -3.33870395900602E+01
    Ewald energy    = -2.83381798764797E+02
    PspCore energy  =  1.07833582949584E+01
    Dble-C XC-energy= -1.11706692400588E+02
    Spherical terms =  1.96181497608471E+01
    >>>> Etotal (DC)= -3.98074022699640E+02

  >Total energy in eV           = -1.08321457391344E+04
  >Total DC energy in eV        = -1.08321450363743E+04
 rms coord change=  3.6460E-04   atom, delta coord (reduced):
     1        0.000000000000      0.000000000000      0.000000000000
     2        0.000000000000      0.000000000000      0.000000000000
     3        0.000000000000      0.000000000000      0.000000000000
     4        0.000000000000      0.000000000000      0.000000000000
     5        0.000000000000      0.000000000000      0.000313712307
     6        0.000000000000      0.000000000000     -0.000313712307
     7        0.000000000000      0.000000000000      0.000313712307
     8        0.000000000000      0.000000000000     -0.000313712307
     9        0.000000000000      0.000000000000      0.000000000000
    10        0.000000000000      0.000000000000      0.000000000000
    11        0.000000000000      0.000000000000      0.001139024949
    12        0.000000000000      0.000000000000     -0.001139024949
    13        0.000000000000      0.000000000000      0.001139024949
    14        0.000000000000      0.000000000000     -0.001139024949

 Cartesian components of stress tensor (hartree/bohr^3)
  sigma(1 1)= -8.79338202E-05  sigma(3 2)=  0.00000000E+00
  sigma(2 2)= -8.79338202E-05  sigma(3 1)=  0.00000000E+00
  sigma(3 3)= -9.94984229E-05  sigma(2 1)=  0.00000000E+00

-Cartesian components of stress tensor (GPa)         [Pressure=  2.7005E+00 GPa]
- sigma(1 1)= -2.58710188E+00  sigma(3 2)=  0.00000000E+00
- sigma(2 2)= -2.58710188E+00  sigma(3 1)=  0.00000000E+00
- sigma(3 3)= -2.92734417E+00  sigma(2 1)=  0.00000000E+00

== END DATASET(S) ==============================================================

 -outvars: echo values of variables after computation  --------
            acell      7.2438563300E+00  7.2438563300E+00  2.3799621900E+01 Bohr
              amu      1.59994000E+01  5.09415000E+01  8.76200000E+01
          dilatmx      1.05000000E+00
             ecut      2.50000000E+01 Hartree
           ecutsm      5.00000000E-01 Hartree
           etotal     -3.9807402270E+02
            fcart     -1.1667930371E-31 -6.6118272101E-32  2.4200941350E-22
                      -1.1667930371E-31 -6.6118272101E-32  2.4200941350E-22
                      -1.1667930371E-31 -6.6118272101E-32  2.4200941350E-22
                      -1.1667930371E-31 -6.6118272101E-32  2.4200941350E-22
                       4.2782411359E-31  4.5115997433E-31 -4.1410848597E-06
                       3.1892343013E-31  3.2864670544E-31  4.1410848597E-06
                       2.1002274667E-31 -5.4936505495E-31 -4.1410848597E-06
                       1.0112206321E-31  1.7210197297E-31  4.1410848597E-06
                      -1.1667930371E-31 -6.6118272101E-32  2.4200941363E-22
                      -1.1667930371E-31 -6.6118272101E-32  2.4200941370E-22
                      -6.6118272101E-31 -6.2423427483E-31 -1.2895632744E-05
                       3.1892343013E-31  3.2864670544E-31  1.2895632744E-05
                      -1.1667930371E-31  1.3807050939E-31 -1.2895632744E-05
                       1.0112206321E-31  1.5168309482E-31  1.2895632744E-05
           fftalg         401
      fft_opt_lob           2
           getwfk          -1
           ionmov           2
           iprcch           6
              ixc          11
            jpawu      0.00000000E+00  2.57245278E-02  0.00000000E+00
              kpt      1.25000000E-01  1.25000000E-01  1.25000000E-01
                       3.75000000E-01  1.25000000E-01  1.25000000E-01
                       3.75000000E-01  3.75000000E-01  1.25000000E-01
                       1.25000000E-01  1.25000000E-01  3.75000000E-01
                       3.75000000E-01  1.25000000E-01  3.75000000E-01
                       3.75000000E-01  3.75000000E-01  3.75000000E-01
         kptrlatt        4    0    0      0    4    0      0    0    4
          kptrlen      2.89754253E+01
            lpawu          -1       2      -1
P           mkmem           3
            natom          14
            nband          59
            ngfft          36      36     120
          ngfftdg          60      60     192
             nkpt           6
            npfft           2
-           npkpt           2
           nspden           2
            nstep        1000
             nsym          32
            ntime         100
           ntypat           3
              occ      2.000000  2.000000  2.000000  2.000000  2.000000  2.000000
                       2.000000  2.000000  2.000000  2.000000  2.000000  2.000000
                       2.000000  2.000000  2.000000  2.000000  2.000000  2.000000
                       2.000000  2.000000  2.000000  2.000000  2.000000  2.000000
                       2.000000  2.000000  2.000000  2.000000  2.000000  2.000000
                       2.000000  2.000000  2.000000  2.000000  2.000000  2.000000
                       2.000000  2.000000  2.000000  2.000000  2.000000  2.000000
                       2.000000  2.000000  2.000000  2.000000  2.000000  2.000000
                       2.000000  2.000000  2.000000  2.000000  2.000000  2.000000
                       2.000000  2.000000  2.000000  0.000000  0.000000
        paral_kgb           1
        pawecutdg      6.50000000E+01 Hartree
         pawmixdg           1
           prtden           0
        prtdensph           1
           prteig           0
           shiftk      5.00000000E-01  5.00000000E-01  5.00000000E-01
          spgroup         123
           spinat      0.0000000000E+00  0.0000000000E+00  0.0000000000E+00
                       0.0000000000E+00  0.0000000000E+00  0.0000000000E+00
                       0.0000000000E+00  0.0000000000E+00  0.0000000000E+00
                       0.0000000000E+00  0.0000000000E+00  0.0000000000E+00
                       0.0000000000E+00  0.0000000000E+00  0.0000000000E+00
                       0.0000000000E+00  0.0000000000E+00  0.0000000000E+00
                       0.0000000000E+00  0.0000000000E+00  0.0000000000E+00
                       0.0000000000E+00  0.0000000000E+00  0.0000000000E+00
                       0.0000000000E+00  0.0000000000E+00  5.0000000000E+00
                       0.0000000000E+00  0.0000000000E+00 -5.0000000000E+00
                       0.0000000000E+00  0.0000000000E+00  0.0000000000E+00
                       0.0000000000E+00  0.0000000000E+00  0.0000000000E+00
                       0.0000000000E+00  0.0000000000E+00  0.0000000000E+00
                       0.0000000000E+00  0.0000000000E+00  0.0000000000E+00
           strten     -8.7933820242E-05 -8.7933820242E-05 -9.9498422857E-05
                       0.0000000000E+00  0.0000000000E+00  0.0000000000E+00
           symafm        1   -1    1   -1    1   -1    1   -1    1   -1
                         1   -1    1   -1    1   -1    1   -1    1   -1
                         1   -1    1   -1    1   -1    1   -1    1   -1
                         1   -1
           symrel      1  0  0   0  1  0   0  0  1       1  0  0   0  1  0   0  0  1
                      -1  0  0   0 -1  0   0  0 -1      -1  0  0   0 -1  0   0  0 -1
                      -1  0  0   0  1  0   0  0 -1      -1  0  0   0  1  0   0  0 -1
                       1  0  0   0 -1  0   0  0  1       1  0  0   0 -1  0   0  0  1
                      -1  0  0   0 -1  0   0  0  1      -1  0  0   0 -1  0   0  0  1
                       1  0  0   0  1  0   0  0 -1       1  0  0   0  1  0   0  0 -1
                       1  0  0   0 -1  0   0  0 -1       1  0  0   0 -1  0   0  0 -1
                      -1  0  0   0  1  0   0  0  1      -1  0  0   0  1  0   0  0  1
                       0  1  0   1  0  0   0  0  1       0  1  0   1  0  0   0  0  1
                       0 -1  0  -1  0  0   0  0 -1       0 -1  0  -1  0  0   0  0 -1
                       0 -1  0   1  0  0   0  0 -1       0 -1  0   1  0  0   0  0 -1
                       0  1  0  -1  0  0   0  0  1       0  1  0  -1  0  0   0  0  1
                       0 -1  0  -1  0  0   0  0  1       0 -1  0  -1  0  0   0  0  1
                       0  1  0   1  0  0   0  0 -1       0  1  0   1  0  0   0  0 -1
                       0  1  0  -1  0  0   0  0 -1       0  1  0  -1  0  0   0  0 -1
                       0 -1  0   1  0  0   0  0  1       0 -1  0   1  0  0   0  0  1
            tnons      0.0000000  0.0000000  0.0000000     0.5000000  0.5000000  0.5000000
                       0.0000000  0.0000000  0.0000000     0.5000000  0.5000000  0.5000000
                       0.0000000  0.0000000  0.0000000     0.5000000  0.5000000  0.5000000
                       0.0000000  0.0000000  0.0000000     0.5000000  0.5000000  0.5000000
                       0.0000000  0.0000000  0.0000000     0.5000000  0.5000000  0.5000000
                       0.0000000  0.0000000  0.0000000     0.5000000  0.5000000  0.5000000
                       0.0000000  0.0000000  0.0000000     0.5000000  0.5000000  0.5000000
                       0.0000000  0.0000000  0.0000000     0.5000000  0.5000000  0.5000000
                       0.0000000  0.0000000  0.0000000     0.5000000  0.5000000  0.5000000
                       0.0000000  0.0000000  0.0000000     0.5000000  0.5000000  0.5000000
                       0.0000000  0.0000000  0.0000000     0.5000000  0.5000000  0.5000000
                       0.0000000  0.0000000  0.0000000     0.5000000  0.5000000  0.5000000
                       0.0000000  0.0000000  0.0000000     0.5000000  0.5000000  0.5000000
                       0.0000000  0.0000000  0.0000000     0.5000000  0.5000000  0.5000000
                       0.0000000  0.0000000  0.0000000     0.5000000  0.5000000  0.5000000
                       0.0000000  0.0000000  0.0000000     0.5000000  0.5000000  0.5000000
           toldfe      1.00000000E-06 Hartree
           tsmear      5.00000000E-02 Hartree
            typat      1  1  1  1  1  1  1  1  2  2  3  3  3  3
            upawu      0.00000000E+00  1.54347167E-01  0.00000000E+00
          usepawu           1
           useylm           1
         wfoptalg          14
              wtk        0.12500    0.25000    0.12500    0.12500    0.25000    0.12500
           xangst      1.9166418361E+00 -4.1051653293E-17  2.6153562590E-20
                      -4.1051653293E-17  1.9166418361E+00  2.6153562590E-20
                      -4.1051653293E-17  1.9166418361E+00  6.2971087413E+00
                       1.9166418361E+00 -4.1051653293E-17  6.2971087413E+00
                      -4.1051653293E-17 -4.1051653293E-17  1.9914444219E+00
                      -4.1051653293E-17 -4.1051653293E-17  1.0602773061E+01
                       1.9166418361E+00  1.9166418361E+00  8.2885531632E+00
                       1.9166418361E+00  1.9166418361E+00  4.3056643193E+00
                      -4.1051653293E-17 -4.1051653293E-17  2.6153562590E-20
                       1.9166418361E+00  1.9166418361E+00  6.2971087413E+00
                       1.9166418361E+00  1.9166418361E+00  1.8387434724E+00
                       1.9166418361E+00  1.9166418361E+00  1.0755474010E+01
                      -4.1051653293E-17 -4.1051653293E-17  8.1358522137E+00
                      -4.1051653293E-17 -4.1051653293E-17  4.4583652688E+00
            xcart      3.6219281650E+00 -7.7576382026E-17  4.9423070694E-20
                      -7.7576382026E-17  3.6219281650E+00  4.9423070694E-20
                      -7.7576382026E-17  3.6219281650E+00  1.1899810950E+01
                       3.6219281650E+00 -7.7576382026E-17  1.1899810950E+01
                      -7.7576382026E-17 -7.7576382026E-17  3.7632845663E+00
                      -7.7576382026E-17 -7.7576382026E-17  2.0036337334E+01
                       3.6219281650E+00  3.6219281650E+00  1.5663095516E+01
                       3.6219281650E+00  3.6219281650E+00  8.1365263837E+00
                      -7.7576382026E-17 -7.7576382026E-17  4.9423070694E-20
                       3.6219281650E+00  3.6219281650E+00  1.1899810950E+01
                       3.6219281650E+00  3.6219281650E+00  3.4747215915E+00
                       3.6219281650E+00  3.6219281650E+00  2.0324900308E+01
                      -7.7576382026E-17 -7.7576382026E-17  1.5374532542E+01
                      -7.7576382026E-17 -7.7576382026E-17  8.4250893585E+00
             xred      5.0000000000E-01 -1.0709265686E-17  2.0766325995E-21
                      -1.0709265686E-17  5.0000000000E-01  2.0766325995E-21
                      -1.0709265686E-17  5.0000000000E-01  5.0000000000E-01
                       5.0000000000E-01 -1.0709265686E-17  5.0000000000E-01
                      -1.0709265686E-17 -1.0709265686E-17  1.5812371231E-01
                      -1.0709265686E-17 -1.0709265686E-17  8.4187628769E-01
                       5.0000000000E-01  5.0000000000E-01  6.5812371231E-01
                       5.0000000000E-01  5.0000000000E-01  3.4187628769E-01
                      -1.0709265686E-17 -1.0709265686E-17  2.0766325995E-21
                       5.0000000000E-01  5.0000000000E-01  5.0000000000E-01
                       5.0000000000E-01  5.0000000000E-01  1.4599902495E-01
                       5.0000000000E-01  5.0000000000E-01  8.5400097505E-01
                      -1.0709265686E-17 -1.0709265686E-17  6.4599902495E-01
                      -1.0709265686E-17 -1.0709265686E-17  3.5400097505E-01
            znucl        8.00000   23.00000   38.00000

- Timing analysis has been suppressed with timopt=0

 Suggested references for the acknowledgment of ABINIT usage.

 [1] Large scale ab initio calculations based on three levels of parallelization
 F. Bottin, S. Leroux, A. Knyazev, G. Zerah, Comput. Mat. Science 42, 329, (2008).
 Comment : in case paral_kgb is non-zero. Strong suggestion to cite this paper in your publications.

 [2] Gamma and beta cerium: LDA+U calculations of ground-state parameters.
 B. Amadon, F. Jollet and M. Torrent, Phys. Rev. B 77, 155104 (2008).
 Comment : LDA+U calculations, usepawu/=0. Strong suggestion to cite this paper.

 [3] Implementation of the Projector Augmented-Wave Method in the ABINIT code.
 M. Torrent, F. Jollet, F. Bottin, G. Zerah, and X. Gonze Comput. Mat. Science 42, 337, (2008).
 Comment : PAW calculations. Strong suggestion to cite this paper.

 [4] ABINIT : First-principles approach of materials and nanosystem properties.
 X. Gonze, B. Amadon, P.-M. Anglade, J.-M. Beuken, F. Bottin, P. Boulanger, F. Bruneval,
 D. Caliste, R. Caracas, M. Cote, T. Deutsch, L. Genovese, Ph. Ghosez, M. Giantomassi
 S. Goedecker, D.R. Hamann, P. Hermet, F. Jollet, G. Jomard, S. Leroux, M. Mancini, S. Mazevet,
 M.J.T. Oliveira, G. Onida, Y. Pouillon, T. Rangel, G.-M. Rignanese, D. Sangalli, R. Shaltaf,
 M. Torrent, M.J. Verstraete, G. Zerah, J.W. Zwanziger
 Computer Phys. Comm. 180, 2582-2615 (2009).
 Comment : the third generic paper describing the ABINIT project.
 Note that a version of this paper, that is not formatted for Computer Phys. Comm.
 The licence allows the authors to put it on the Web.

 [5] A brief introduction to the ABINIT software package.
 X. Gonze, G.-M. Rignanese, M. Verstraete, J.-M. Beuken, Y. Pouillon, R. Caracas, F. Jollet,
 M. Torrent, G. Zerah, M. Mikami, Ph. Ghosez, M. Veithen, J.-Y. Raty, V. Olevano, F. Bruneval,
 L. Reining, R. Godby, G. Onida, D.R. Hamann, and D.C. Allan.
 Z. Kristallogr. 220, 558-562 (2005).
 Comment : the second generic paper describing the ABINIT project. Note that this paper
 should be cited especially if you are using the GW part of ABINIT, as several authors
 of this part are not in the list of authors of the first or third paper.
 Note that it should not redistributed (Copyright by Oldenburg Wissenshaftverlag,
 the licence allows the authors to put it on the Web).
-

 Calculation completed.
.Delivered   19 WARNINGs and  11 COMMENTs to log file.