.Version 8.4.2 of ABINIT

 ABINIT is a project of the Universite Catholique de Louvain,
 Corning Inc. and other collaborators, see ~abinit/doc/developers/contributors.txt .
 Please read ~abinit/doc/users/acknowledgments.html for suggested
 acknowledgments of the ABINIT effort.

.Starting date : Tue 20 Feb 2018.
- ( at 23h31 )

- input  file    -> mos2-1ml.in
- output file    -> mos2-1ml.out
- root for input  files -> mos2-1mli
- root for output files -> mos2-1mlo

 DATASET    1 : space group P-6 m 2 (#187); Bravais hP (primitive hexag.)
     intxc =       0    ionmov =       0      iscf =       7    lmnmax =       2
     lnmax =       2     mgfft =      60  mpssoang =       3    mqgrid =    3001
     natom =       3  nloc_mem =       1    nspden =       1   nspinor =       1
    nsppol =       1      nsym =      12    n1xccc =    2501    ntypat =       2
    occopt =       1   xclevel =       1
-    mband =         130        mffmem =           1         mkmem =           1
       mpw =         948          nfft =       19440          nkpt =           7
P Max. in main chain + fourwf.f
P
  Rough estimation (10% accuracy) of disk space for files :

[...]

 DATASET    4 : space group P-6 m 2 (#187); Bravais hP (primitive hexag.)
     intxc =       0    ionmov =       0      iscf =       7    lmnmax =       2
     lnmax =       2     mgfft =      36  mpssoang =       3    mqgrid =    3001
     natom =       3  nloc_mem =       1    nspden =       1   nspinor =       1
    nsppol =       1      nsym =      12    n1xccc =    2501    ntypat =       2
    occopt =       1   xclevel =       1
-    mband =          80        mffmem =           1         mkmem =           1
       mpw =         251          nfft =        5184          nkpt =           7
P Max. in main chain + fourwf.f
P
  Rough estimation (10% accuracy) of disk space for files :

------------- Echo of variables that govern the present computation ------------
-
- outvars: echo of selected default values
-   iomode0 =  0 , fftalg0 =112 , wfoptalg0 =  0
-
- outvars: echo of global parameters not present in the input file
-  max_nthreads =    0
-
 -outvars: echo values of preprocessed input variables --------
            acell      5.9715341239E+00  5.9715341239E+00  2.0000000000E+01 Bohr
              amu      9.59400000E+01  3.20660000E+01
             bdgw4          9      10
      chksymbreak           0
           diemac      4.00000000E+00
             ecut1     1.00000000E+01 Hartree
             ecut2     1.00000000E+01 Hartree
             ecut3     3.99718978E+00 Hartree
             ecut4     3.99718978E+00 Hartree
          ecuteps1     0.00000000E+00 Hartree
          ecuteps2     0.00000000E+00 Hartree
          ecuteps3     3.99718978E+00 Hartree
          ecuteps4     0.00000000E+00 Hartree
         ecutsigx1     0.00000000E+00 Hartree
         ecutsigx2     0.00000000E+00 Hartree
         ecutsigx3     0.00000000E+00 Hartree
         ecutsigx4     3.99718978E+00 Hartree
          ecutwfn1     0.00000000E+00 Hartree
          ecutwfn2     0.00000000E+00 Hartree
          ecutwfn3     3.99718978E+00 Hartree
          ecutwfn4     3.99718978E+00 Hartree
-          fftalg         112
           getden1          0
           getden2         -1
           getden3          0
           getden4          0
        getsuscep1          0
        getsuscep2          0
        getsuscep3          0
        getsuscep4         -1
           getwfk1          0
           getwfk2         -1
           getwfk3         -2
           getwfk4         -3
         gw_nqlwl           1
         gw_nstep        2000
          gw_qlwl      1.00000000E-05  1.00000000E-05  0.00000000E+00
      gw_toldfeig      1.00000000E-06 Hartree
         icutcoul           2
          inclvkb           0
             iscf1          7
             iscf2         -2
             iscf3          7
             iscf4          7
           istwfk        1    0    0    1    0    0    0
           jdtset        1    2    3    4
              kpt      0.00000000E+00  0.00000000E+00  0.00000000E+00
                       1.66666667E-01  0.00000000E+00  0.00000000E+00
                       3.33333333E-01  0.00000000E+00  0.00000000E+00
                       5.00000000E-01  0.00000000E+00  0.00000000E+00
                       1.66666667E-01  1.66666667E-01  0.00000000E+00
                       3.33333333E-01  1.66666667E-01  0.00000000E+00
                       3.33333333E-01  3.33333333E-01  0.00000000E+00
            kptgw4     0.00000000E+00  0.00000000E+00  0.00000000E+00
         kptrlatt        6    0    0      0    6    0      0    0    1
          kptrlen      3.58292047E+01
          kssform1          1
          kssform2          3
          kssform3          1
          kssform4          1
P           mkmem           1
            natom           3
            nband1        130
            nband2         80
            nband3         80
            nband4         80
         nbandkss1          0
         nbandkss2         80
         nbandkss3          0
         nbandkss4          0
           nbdbuf1          0
           nbdbuf2          2
           nbdbuf3          0
           nbdbuf4          0
           ndtset           4
            ngfft1         18      18      60
            ngfft2         18      18      60
            ngfft3         12      12      36
            ngfft4         12      12      36
             nkpt           7
           nkptgw1          0
           nkptgw2          0
           nkptgw3          0
           nkptgw4          1
           npweps1          0
           npweps2          0
           npweps3        253
           npweps4          0
          npwsigx1          0
          npwsigx2          0
          npwsigx3          0
          npwsigx4        253
           npwwfn1          0
           npwwfn2          0
           npwwfn3        253
           npwwfn4        253
            nstep        2000
             nsym          12
           ntypat           2
              occ1     2.000000  2.000000  2.000000  2.000000  2.000000  2.000000
                       2.000000  2.000000  2.000000  0.000000  0.000000  0.000000
                       0.000000  0.000000  0.000000  0.000000  0.000000  0.000000
                       0.000000  0.000000  0.000000  0.000000  0.000000  0.000000
                       0.000000  0.000000  0.000000  0.000000  0.000000  0.000000
                       0.000000  0.000000  0.000000  0.000000  0.000000  0.000000
                       0.000000  0.000000  0.000000  0.000000  0.000000  0.000000
                       0.000000  0.000000  0.000000  0.000000  0.000000  0.000000
                       0.000000  0.000000  0.000000  0.000000  0.000000  0.000000
                       0.000000  0.000000  0.000000  0.000000  0.000000  0.000000
                       0.000000  0.000000  0.000000  0.000000  0.000000  0.000000
                       0.000000  0.000000  0.000000  0.000000  0.000000  0.000000
                       0.000000  0.000000  0.000000  0.000000  0.000000  0.000000
                       0.000000  0.000000  0.000000  0.000000  0.000000  0.000000
                       0.000000  0.000000  0.000000  0.000000  0.000000  0.000000
                       0.000000  0.000000  0.000000  0.000000  0.000000  0.000000
                       0.000000  0.000000  0.000000  0.000000  0.000000  0.000000
                       0.000000  0.000000  0.000000  0.000000  0.000000  0.000000
                       0.000000  0.000000  0.000000  0.000000  0.000000  0.000000
                       0.000000  0.000000  0.000000  0.000000  0.000000  0.000000
                       0.000000  0.000000  0.000000  0.000000  0.000000  0.000000
                       0.000000  0.000000  0.000000  0.000000
              occ3     2.000000  2.000000  2.000000  2.000000  2.000000  2.000000
                       2.000000  2.000000  2.000000  0.000000  0.000000  0.000000
                       0.000000  0.000000  0.000000  0.000000  0.000000  0.000000
                       0.000000  0.000000  0.000000  0.000000  0.000000  0.000000
                       0.000000  0.000000  0.000000  0.000000  0.000000  0.000000
                       0.000000  0.000000  0.000000  0.000000  0.000000  0.000000
                       0.000000  0.000000  0.000000  0.000000  0.000000  0.000000
                       0.000000  0.000000  0.000000  0.000000  0.000000  0.000000
                       0.000000  0.000000  0.000000  0.000000  0.000000  0.000000
                       0.000000  0.000000  0.000000  0.000000  0.000000  0.000000
                       0.000000  0.000000  0.000000  0.000000  0.000000  0.000000
                       0.000000  0.000000  0.000000  0.000000  0.000000  0.000000
                       0.000000  0.000000  0.000000  0.000000  0.000000  0.000000
                       0.000000  0.000000
              occ4     2.000000  2.000000  2.000000  2.000000  2.000000  2.000000
                       2.000000  2.000000  2.000000  0.000000  0.000000  0.000000
                       0.000000  0.000000  0.000000  0.000000  0.000000  0.000000
                       0.000000  0.000000  0.000000  0.000000  0.000000  0.000000
                       0.000000  0.000000  0.000000  0.000000  0.000000  0.000000
                       0.000000  0.000000  0.000000  0.000000  0.000000  0.000000
                       0.000000  0.000000  0.000000  0.000000  0.000000  0.000000
                       0.000000  0.000000  0.000000  0.000000  0.000000  0.000000
                       0.000000  0.000000  0.000000  0.000000  0.000000  0.000000
                       0.000000  0.000000  0.000000  0.000000  0.000000  0.000000
                       0.000000  0.000000  0.000000  0.000000  0.000000  0.000000
                       0.000000  0.000000  0.000000  0.000000  0.000000  0.000000
                       0.000000  0.000000  0.000000  0.000000  0.000000  0.000000
                       0.000000  0.000000
        optdriver1          0
        optdriver2          0
        optdriver3          3
        optdriver4          4
           ppmfrq1     0.00000000E+00 Hartree
           ppmfrq2     0.00000000E+00 Hartree
           ppmfrq3     3.16044198E-01 Hartree
           ppmfrq4     0.00000000E+00 Hartree
        prtsuscep1          0
        prtsuscep2          0
        prtsuscep3          1
        prtsuscep4          0
           prtvol          10
             rcut      1.00000000E+01 Bohr
            rprim      5.0000000000E-01 -8.6602540378E-01  0.0000000000E+00
                       5.0000000000E-01  8.6602540378E-01  0.0000000000E+00
                       0.0000000000E+00  0.0000000000E+00  1.0000000000E+00
          spgroup         187
        symmorphi           0
           symrel      1  0  0   0  1  0   0  0  1       0 -1  0  -1  0  0   0  0 -1
                      -1 -1  0   1  0  0   0  0 -1      -1  0  0   1  1  0   0  0  1
                       0  1  0  -1 -1  0   0  0  1       1  1  0   0 -1  0   0  0 -1
                       1  0  0   0  1  0   0  0 -1       0 -1  0  -1  0  0   0  0  1
[...]

 === KS Band Gaps ===
  >>>> For spin  1
   Minimum optical gap =   1.8526 [eV], located at k-point      :   0.3333  0.3333  0.0000
   Fundamental gap     =   1.8526 [eV], Top of valence bands at :   0.3333  0.3333  0.0000
                                        Bottom of conduction at :   0.3333  0.3333  0.0000
 SIGMA fundamental parameters:
 PLASMON POLE MODEL  1
 number of plane-waves for SigmaX                  253
 number of plane-waves for SigmaC and W            253
 number of plane-waves for wavefunctions           253
 number of bands                                    80
 number of independent spin polarizations            1
 number of spinorial components                      1
 number of k-points in IBZ                           7
 number of q-points in IBZ                           7
 number of symmetry operations                      12
 number of k-points in BZ                           36
 number of q-points in BZ                           36
 number of frequencies for dSigma/dE                 9
 frequency step for dSigma/dE [eV]                0.25
 number of omega for Sigma on real axis              0
 max omega for Sigma on real axis  [eV]           0.00
 zcut for avoiding poles [eV]                     0.10

 EPSILON^-1 parameters (SCR file):
 dimension of the eps^-1 matrix on file            253
 dimension of the eps^-1 matrix used               253
 number of plane-waves for wavefunctions           253
 number of bands                                    80
 number of q-points in IBZ                           7
 number of frequencies                               2
 number of real frequencies                          1
 number of imag frequencies                          1

 matrix elements of self-energy operator (all in [eV])

 Perturbative Calculation

 k =    0.000   0.000   0.000
 Band     E0 <VxcLDA>   SigX SigC(E0)      Z dSigC/dE  Sig(E)    E-E0       E
    9  -1.796 -10.955 -10.668   0.405   0.811  -0.233 -10.395   0.560  -1.236
   10   1.258 -12.193  -7.182  -1.876   0.809  -0.237  -9.658   2.535   3.793

 E^0_gap          3.054
 E^GW_gap         5.029
 DeltaE^GW_gap    1.975

== END DATASET(S) ==============================================================

 -outvars: echo values of variables after computation  --------
            acell      5.9715341239E+00  5.9715341239E+00  2.0000000000E+01 Bohr
              amu      9.59400000E+01  3.20660000E+01
             bdgw4          9      10
      chksymbreak           0
           diemac      4.00000000E+00
             ecut1     1.00000000E+01 Hartree
             ecut2     1.00000000E+01 Hartree
             ecut3     3.99718978E+00 Hartree
             ecut4     3.99718978E+00 Hartree
          ecuteps1     0.00000000E+00 Hartree
          ecuteps2     0.00000000E+00 Hartree
          ecuteps3     3.99718978E+00 Hartree
          ecuteps4     0.00000000E+00 Hartree
         ecutsigx1     0.00000000E+00 Hartree
         ecutsigx2     0.00000000E+00 Hartree
         ecutsigx3     0.00000000E+00 Hartree
         ecutsigx4     3.99718978E+00 Hartree
          ecutwfn1     0.00000000E+00 Hartree
          ecutwfn2     0.00000000E+00 Hartree
          ecutwfn3     3.99718978E+00 Hartree
          ecutwfn4     3.99718978E+00 Hartree
           etotal1    -3.2305383877E+01
           etotal3     0.0000000000E+00
           etotal4     0.0000000000E+00
            fcart1     0.0000000000E+00  0.0000000000E+00  0.0000000000E+00
                       0.0000000000E+00  0.0000000000E+00  3.5544273764E-02
                       0.0000000000E+00  0.0000000000E+00 -3.5544273764E-02
            fcart3     0.0000000000E+00  0.0000000000E+00  0.0000000000E+00
                       0.0000000000E+00  0.0000000000E+00  0.0000000000E+00
                       0.0000000000E+00  0.0000000000E+00  0.0000000000E+00
            fcart4     0.0000000000E+00  0.0000000000E+00  0.0000000000E+00
                       0.0000000000E+00  0.0000000000E+00  0.0000000000E+00
                       0.0000000000E+00  0.0000000000E+00  0.0000000000E+00
-          fftalg         112
           getden1          0
           getden2         -1
           getden3          0
           getden4          0
        getsuscep1          0
        getsuscep2          0
        getsuscep3          0
        getsuscep4         -1
           getwfk1          0
           getwfk2         -1
           getwfk3         -2
           getwfk4         -3
         gw_nqlwl           1
         gw_nstep        2000
          gw_qlwl      1.00000000E-05  1.00000000E-05  0.00000000E+00
      gw_toldfeig      1.00000000E-06 Hartree
         icutcoul           2
          inclvkb           0
             iscf1          7
             iscf2         -2
             iscf3          7
             iscf4          7
           istwfk        1    0    0    1    0    0    0
           jdtset        1    2    3    4
              kpt      0.00000000E+00  0.00000000E+00  0.00000000E+00
                       1.66666667E-01  0.00000000E+00  0.00000000E+00
                       3.33333333E-01  0.00000000E+00  0.00000000E+00
                       5.00000000E-01  0.00000000E+00  0.00000000E+00
                       1.66666667E-01  1.66666667E-01  0.00000000E+00
                       3.33333333E-01  1.66666667E-01  0.00000000E+00
                       3.33333333E-01  3.33333333E-01  0.00000000E+00
            kptgw4     0.00000000E+00  0.00000000E+00  0.00000000E+00
         kptrlatt        6    0    0      0    6    0      0    0    1
          kptrlen      3.58292047E+01
          kssform1          1
          kssform2          3
          kssform3          1
          kssform4          1
P           mkmem           1
            natom           3
            nband1        130
            nband2         80
            nband3         80
            nband4         80
         nbandkss1          0
         nbandkss2         80
         nbandkss3          0
         nbandkss4          0
           nbdbuf1          0
           nbdbuf2          2
           nbdbuf3          0
           nbdbuf4          0
           ndtset           4
            ngfft1         18      18      60
            ngfft2         18      18      60
            ngfft3         12      12      36
            ngfft4         12      12      36
             nkpt           7
           nkptgw1          0
           nkptgw2          0
           nkptgw3          0
           nkptgw4          1
           npweps1          0
           npweps2          0
           npweps3        253
           npweps4          0
          npwsigx1          0
          npwsigx2          0
          npwsigx3          0
          npwsigx4        253
           npwwfn1          0
           npwwfn2          0
           npwwfn3        253
           npwwfn4        253
            nstep        2000
             nsym          12
           ntypat           2
              occ1     2.000000  2.000000  2.000000  2.000000  2.000000  2.000000
                       2.000000  2.000000  2.000000  0.000000  0.000000  0.000000
                       0.000000  0.000000  0.000000  0.000000  0.000000  0.000000
                       0.000000  0.000000  0.000000  0.000000  0.000000  0.000000
                       0.000000  0.000000  0.000000  0.000000  0.000000  0.000000
                       0.000000  0.000000  0.000000  0.000000  0.000000  0.000000
                       0.000000  0.000000  0.000000  0.000000  0.000000  0.000000
                       0.000000  0.000000  0.000000  0.000000  0.000000  0.000000
                       0.000000  0.000000  0.000000  0.000000  0.000000  0.000000
                       0.000000  0.000000  0.000000  0.000000  0.000000  0.000000
                       0.000000  0.000000  0.000000  0.000000  0.000000  0.000000
                       0.000000  0.000000  0.000000  0.000000  0.000000  0.000000
                       0.000000  0.000000  0.000000  0.000000  0.000000  0.000000
                       0.000000  0.000000  0.000000  0.000000  0.000000  0.000000
                       0.000000  0.000000  0.000000  0.000000  0.000000  0.000000
                       0.000000  0.000000  0.000000  0.000000  0.000000  0.000000
                       0.000000  0.000000  0.000000  0.000000  0.000000  0.000000
                       0.000000  0.000000  0.000000  0.000000  0.000000  0.000000
                       0.000000  0.000000  0.000000  0.000000  0.000000  0.000000
                       0.000000  0.000000  0.000000  0.000000  0.000000  0.000000
                       0.000000  0.000000  0.000000  0.000000  0.000000  0.000000
                       0.000000  0.000000  0.000000  0.000000
              occ3     2.000000  2.000000  2.000000  2.000000  2.000000  2.000000
                       2.000000  2.000000  2.000000  0.000000  0.000000  0.000000
                       0.000000  0.000000  0.000000  0.000000  0.000000  0.000000
                       0.000000  0.000000  0.000000  0.000000  0.000000  0.000000
                       0.000000  0.000000  0.000000  0.000000  0.000000  0.000000
                       0.000000  0.000000  0.000000  0.000000  0.000000  0.000000
                       0.000000  0.000000  0.000000  0.000000  0.000000  0.000000
                       0.000000  0.000000  0.000000  0.000000  0.000000  0.000000
                       0.000000  0.000000  0.000000  0.000000  0.000000  0.000000
                       0.000000  0.000000  0.000000  0.000000  0.000000  0.000000
                       0.000000  0.000000  0.000000  0.000000  0.000000  0.000000
                       0.000000  0.000000  0.000000  0.000000  0.000000  0.000000
                       0.000000  0.000000  0.000000  0.000000  0.000000  0.000000
                       0.000000  0.000000
              occ4     2.000000  2.000000  2.000000  2.000000  2.000000  2.000000
                       2.000000  2.000000  2.000000  0.000000  0.000000  0.000000
                       0.000000  0.000000  0.000000  0.000000  0.000000  0.000000
                       0.000000  0.000000  0.000000  0.000000  0.000000  0.000000
                       0.000000  0.000000  0.000000  0.000000  0.000000  0.000000
                       0.000000  0.000000  0.000000  0.000000  0.000000  0.000000
                       0.000000  0.000000  0.000000  0.000000  0.000000  0.000000
                       0.000000  0.000000  0.000000  0.000000  0.000000  0.000000
                       0.000000  0.000000  0.000000  0.000000  0.000000  0.000000
                       0.000000  0.000000  0.000000  0.000000  0.000000  0.000000
                       0.000000  0.000000  0.000000  0.000000  0.000000  0.000000
                       0.000000  0.000000  0.000000  0.000000  0.000000  0.000000
                       0.000000  0.000000  0.000000  0.000000  0.000000  0.000000
                       0.000000  0.000000
        optdriver1          0
        optdriver2          0
        optdriver3          3
        optdriver4          4
           ppmfrq1     0.00000000E+00 Hartree
           ppmfrq2     0.00000000E+00 Hartree
           ppmfrq3     3.16044198E-01 Hartree
           ppmfrq4     0.00000000E+00 Hartree
        prtsuscep1          0
        prtsuscep2          0
        prtsuscep3          1
        prtsuscep4          0
           prtvol          10
             rcut      1.00000000E+01 Bohr
            rprim      5.0000000000E-01 -8.6602540378E-01  0.0000000000E+00
                       5.0000000000E-01  8.6602540378E-01  0.0000000000E+00
                       0.0000000000E+00  0.0000000000E+00  1.0000000000E+00
          spgroup         187
           strten1     7.8119860401E-04  7.8119860401E-04  7.2161998608E-04
                       0.0000000000E+00  0.0000000000E+00  0.0000000000E+00
           strten3     0.0000000000E+00  0.0000000000E+00  0.0000000000E+00
                       0.0000000000E+00  0.0000000000E+00  0.0000000000E+00
           strten4     0.0000000000E+00  0.0000000000E+00  0.0000000000E+00
                       0.0000000000E+00  0.0000000000E+00  0.0000000000E+00
        symmorphi           0
           symrel      1  0  0   0  1  0   0  0  1       0 -1  0  -1  0  0   0  0 -1
                      -1 -1  0   1  0  0   0  0 -1      -1  0  0   1  1  0   0  0  1
                       0  1  0  -1 -1  0   0  0  1       1  1  0   0 -1  0   0  0 -1
                       1  0  0   0  1  0   0  0 -1       0 -1  0  -1  0  0   0  0  1
                      -1 -1  0   1  0  0   0  0  1      -1  0  0   1  1  0   0  0 -1
                       0  1  0  -1 -1  0   0  0 -1       1  1  0   0 -1  0   0  0  1
            tnons      0.0000000  0.0000000  0.0000000     0.0000000  0.0000000  0.0000000
                       0.0000000  0.0000000  0.0000000     0.0000000  0.0000000  0.0000000
                       0.0000000  0.0000000  0.0000000     0.0000000  0.0000000  0.0000000
                       0.0000000  0.0000000  0.0000000     0.0000000  0.0000000  0.0000000
                       0.0000000  0.0000000  0.0000000     0.0000000  0.0000000  0.0000000
                       0.0000000  0.0000000  0.0000000     0.0000000  0.0000000  0.0000000
           toldfe1     1.00000000E-12 Hartree
           toldfe2     0.00000000E+00 Hartree
           toldfe3     1.00000000E-12 Hartree
           toldfe4     1.00000000E-12 Hartree
           tolwfr1     0.00000000E+00
           tolwfr2     1.00000000E-10
           tolwfr3     0.00000000E+00
           tolwfr4     0.00000000E+00
            typat      1  2  2
          vcutgeo      1.0000000  1.0000000  0.0000000
              wtk        0.02778    0.16667    0.16667    0.08333    0.16667    0.33333
                         0.05556
           xangst1     1.5799998794E+00  9.1221335568E-01  0.0000000000E+00
                       1.5799998794E+00 -9.1221335564E-01  1.5649998805E+00
                       1.5799998794E+00 -9.1221335564E-01 -1.5649998805E+00
           xangst2     1.5799998794E+00  9.1221335568E-01  0.0000000000E+00
                       1.5799998794E+00 -9.1221335564E-01  1.5649998805E+00
                       1.5799998794E+00 -9.1221335564E-01 -1.5649998805E+00
           xangst3     1.5799998794E+00  9.1221335568E-01  0.0000000000E+00
                       1.5799998794E+00 -9.1221335564E-01  1.5649998805E+00
                       1.5799998794E+00 -9.1221335564E-01 -1.5649998805E+00
           xangst4     1.5799998794E+00  9.1221335568E-01  0.0000000000E+00
                       1.5799998794E+00 -9.1221335564E-01  1.5649998805E+00
                       1.5799998794E+00 -9.1221335564E-01 -1.5649998805E+00
            xcart1     2.9857670621E+00  1.7238334170E+00  0.0000000000E+00
                       2.9857670621E+00 -1.7238334169E+00  2.9574211721E+00
                       2.9857670621E+00 -1.7238334169E+00 -2.9574211721E+00
            xcart2     2.9857670621E+00  1.7238334170E+00  0.0000000000E+00
                       2.9857670621E+00 -1.7238334169E+00  2.9574211721E+00
                       2.9857670621E+00 -1.7238334169E+00 -2.9574211721E+00
            xcart3     2.9857670621E+00  1.7238334170E+00  0.0000000000E+00
                       2.9857670621E+00 -1.7238334169E+00  2.9574211721E+00
                       2.9857670621E+00 -1.7238334169E+00 -2.9574211721E+00
            xcart4     2.9857670621E+00  1.7238334170E+00  0.0000000000E+00
                       2.9857670621E+00 -1.7238334169E+00  2.9574211721E+00
                       2.9857670621E+00 -1.7238334169E+00 -2.9574211721E+00
             xred1     3.3333333335E-01  6.6666666669E-01  0.0000000000E+00
                       6.6666666668E-01  3.3333333335E-01  1.4787105861E-01
                       6.6666666668E-01  3.3333333335E-01 -1.4787105861E-01
             xred2     3.3333333335E-01  6.6666666669E-01  0.0000000000E+00
                       6.6666666668E-01  3.3333333335E-01  1.4787105861E-01
                       6.6666666668E-01  3.3333333335E-01 -1.4787105861E-01
             xred3     3.3333333335E-01  6.6666666669E-01  0.0000000000E+00
                       6.6666666668E-01  3.3333333335E-01  1.4787105861E-01
                       6.6666666668E-01  3.3333333335E-01 -1.4787105861E-01
             xred4     3.3333333335E-01  6.6666666669E-01  0.0000000000E+00
                       6.6666666668E-01  3.3333333335E-01  1.4787105861E-01
                       6.6666666668E-01  3.3333333335E-01 -1.4787105861E-01
            znucl       42.00000   16.00000

- Timing analysis has been suppressed with timopt=0

 Suggested references for the acknowledgment of ABINIT usage.

 Calculation completed.
.Delivered   0 WARNINGs and   0 COMMENTs to log file.