.Version 8.10.3 of ABINIT

 ABINIT is a project of the Universite Catholique de Louvain,
 Corning Inc. and other collaborators, see ~abinit/doc/developers/contributors.txt .
 acknowledgments of the ABINIT effort.

.Starting date : Tue 18 Feb 2020.
- ( at 08h32 )

- input  file    -> in2se3.in
- output file    -> in2se3.out
- root for input  files -> input_data/idat
- root for output files -> out_data/odat

 DATASET    1 : space group P3 m 1 (#156); Bravais hP (primitive hexag.)
     intxc =       0    ionmov =       0      iscf =       7    lmnmax =       6
     lnmax =       6     mgfft =     288  mpssoang =       3    mqgrid =   14186
     natom =       5  nloc_mem =       1    nspden =       1   nspinor =       1
    nsppol =       1      nsym =       6    n1xccc =    2501    ntypat =       2
    occopt =       1   xclevel =       2
-    mband =          38        mffmem =           1         mkmem =           1
       mpw =       24516          nfft =      460800          nkpt =          91
  Rough estimation (10% accuracy) of disk space for files :

------------- Echo of variables that govern the present computation ------------
-
- outvars: echo of selected default values
-   iomode0 =  0 , fftalg0 =112 , wfoptalg0 =  0
-
- outvars: echo of global parameters not present in the input file
-  max_nthreads =    0
-
 -outvars: echo values of preprocessed input variables --------
            acell      1.0000000000E+00  1.0000000000E+00  1.0000000000E+00 Bohr
              amu      1.14820000E+02  7.89600000E+01
         berryopt          -1
          dilatmx      1.02000000E+00
             ecut      3.00000000E+01 Hartree
           ecutsm      5.00000000E-01 Hartree
-          fftalg         112
           istwfk        1    0    0    0    0    0    0    0    0    0
                         0    0    0    0    0    1    0    0    0    0
                         0    0    0    0    0    0    0    0    0    0
                         0    0    0    0    0    0    0    0    0    0
                         0    0    0    0    0    0    0    0    0    0
                       outvar_i_n : Printing only first  50 k-points.
              ixc          11
           jdtset        1
              kpt      0.00000000E+00  0.00000000E+00  5.00000000E-01
                       3.33333333E-02  0.00000000E+00  5.00000000E-01
                       6.66666667E-02  0.00000000E+00  5.00000000E-01
                       1.00000000E-01  0.00000000E+00  5.00000000E-01
                       1.33333333E-01  0.00000000E+00  5.00000000E-01
                       1.66666667E-01  0.00000000E+00  5.00000000E-01
                       2.00000000E-01  0.00000000E+00  5.00000000E-01
                       2.33333333E-01  0.00000000E+00  5.00000000E-01
                       2.66666667E-01  0.00000000E+00  5.00000000E-01
                       3.00000000E-01  0.00000000E+00  5.00000000E-01
                       3.33333333E-01  0.00000000E+00  5.00000000E-01
                       3.66666667E-01  0.00000000E+00  5.00000000E-01
                       4.00000000E-01  0.00000000E+00  5.00000000E-01
                       4.33333333E-01  0.00000000E+00  5.00000000E-01
                       4.66666667E-01  0.00000000E+00  5.00000000E-01
                       5.00000000E-01  0.00000000E+00  5.00000000E-01
                       6.66666667E-02  3.33333333E-02  5.00000000E-01
                       1.00000000E-01  3.33333333E-02  5.00000000E-01
                       1.33333333E-01  3.33333333E-02  5.00000000E-01
                       1.66666667E-01  3.33333333E-02  5.00000000E-01
                       2.00000000E-01  3.33333333E-02  5.00000000E-01
                       2.33333333E-01  3.33333333E-02  5.00000000E-01
                       2.66666667E-01  3.33333333E-02  5.00000000E-01
                       3.00000000E-01  3.33333333E-02  5.00000000E-01
                       3.33333333E-01  3.33333333E-02  5.00000000E-01
                       3.66666667E-01  3.33333333E-02  5.00000000E-01
                       4.00000000E-01  3.33333333E-02  5.00000000E-01
                       4.33333333E-01  3.33333333E-02  5.00000000E-01
                       4.66666667E-01  3.33333333E-02  5.00000000E-01
                       5.00000000E-01  3.33333333E-02  5.00000000E-01
                       1.33333333E-01  6.66666667E-02  5.00000000E-01
                       1.66666667E-01  6.66666667E-02  5.00000000E-01
                       2.00000000E-01  6.66666667E-02  5.00000000E-01
                       2.33333333E-01  6.66666667E-02  5.00000000E-01
                       2.66666667E-01  6.66666667E-02  5.00000000E-01
                       3.00000000E-01  6.66666667E-02  5.00000000E-01
                       3.33333333E-01  6.66666667E-02  5.00000000E-01
                       3.66666667E-01  6.66666667E-02  5.00000000E-01
                       4.00000000E-01  6.66666667E-02  5.00000000E-01
                       4.33333333E-01  6.66666667E-02  5.00000000E-01
                       4.66666667E-01  6.66666667E-02  5.00000000E-01
                       5.00000000E-01  6.66666667E-02  5.00000000E-01
                      -4.66666667E-01  6.66666667E-02  5.00000000E-01
                       2.00000000E-01  1.00000000E-01  5.00000000E-01
                       2.33333333E-01  1.00000000E-01  5.00000000E-01
                       2.66666667E-01  1.00000000E-01  5.00000000E-01
                       3.00000000E-01  1.00000000E-01  5.00000000E-01
                       3.33333333E-01  1.00000000E-01  5.00000000E-01
                       3.66666667E-01  1.00000000E-01  5.00000000E-01
                       4.00000000E-01  1.00000000E-01  5.00000000E-01
                       outvar_i_n : Printing only first  50 k-points.
         kptrlatt       30    0    0      0   30    0      0    0    1
          kptrlen      2.32607804E+02
P           mkmem           1
            natom           5
            nband          38
           ndtset           1
            ngfft          40      40     288
             nkpt          91
            nstep         300
             nsym           6
           ntypat           2
              occ      2.000000  2.000000  2.000000  2.000000  2.000000  2.000000
                       2.000000  2.000000  2.000000  2.000000  2.000000  2.000000
                       2.000000  2.000000  2.000000  2.000000  2.000000  2.000000
                       2.000000  2.000000  2.000000  2.000000  2.000000  2.000000
                       2.000000  2.000000  2.000000  2.000000  2.000000  2.000000
                       2.000000  2.000000  2.000000  2.000000  2.000000  2.000000
                       2.000000  0.000000
            prtwf           0
            rfdir           1       1       1
            rprim      7.7535934588E+00  0.0000000000E+00  0.0000000000E+00
                       3.8767967294E+00  6.7148089059E+00  1.0000000000E-16
                       0.0000000000E+00 -1.1000000000E-15  5.6403752299E+01
           shiftk      0.00000000E+00  0.00000000E+00  5.00000000E-01
          spgroup         156
           symrel      1  0  0   0  1  0   0  0  1      -1  0  0  -1  1  0   0  0  1
                      -1  1  0  -1  0  0   0  0  1       1 -1  0   0 -1  0   0  0  1
                       0 -1  0   1 -1  0   0  0  1       0  1  0   1  0  0   0  0  1
            tnons      0.0000000  0.0000000  0.0000000    -0.0000000  0.0000000  0.0000000
                      -0.0000000 -0.0000000  0.0000000     0.0000000 -0.0000000  0.0000000
                       0.0000000 -0.0000000  0.0000000     0.0000000 -0.0000000  0.0000000
           toldfe      1.00000000E-09 Hartree
           tolmxf      5.00000000E-06
            typat      1  1  2  2  2
              wtk        0.00111    0.00667    0.00667    0.00667    0.00667    0.00667
                         0.00667    0.00667    0.00667    0.00667    0.00667    0.00667
                         0.00667    0.00667    0.00667    0.00333    0.00667    0.01333
                         0.01333    0.01333    0.01333    0.01333    0.01333    0.01333
                         0.01333    0.01333    0.01333    0.01333    0.01333    0.01333
                         0.00667    0.01333    0.01333    0.01333    0.01333    0.01333
                         0.01333    0.01333    0.01333    0.01333    0.01333    0.01333
                         0.00667    0.00667    0.01333    0.01333    0.01333    0.01333
                         0.01333    0.01333
                       outvars : Printing only first  50 k-points.
           xangst      2.0515124715E+00  1.1844412777E+00  1.6176650536E+01
                       4.1030249431E+00  2.3688825554E+00  2.0405192054E+01
                      -6.0840207243E-49 -2.9123042564E-16  1.4933171627E+01
                       2.0515124715E+00  1.1844412777E+00  1.8725173876E+01
                      -1.6591794198E-49 -4.2368988271E-16  2.1725181087E+01
            xcart      3.8767967294E+00  2.2382696353E+00  3.0569439261E+01
                       7.7535934588E+00  4.4765392706E+00  3.8560224671E+01
                      -1.1497132956E-48 -5.5034574603E-16  2.8219604671E+01
                       3.8767967294E+00  2.2382696353E+00  3.5385450415E+01
                      -3.1353947087E-49 -8.0065784359E-16  4.1054642442E+01
             xred      3.3333333333E-01  3.3333333333E-01  5.4197527673E-01
                       6.6666666667E-01  6.6666666667E-01  6.8364644370E-01
                      -3.0545038566E-33  6.1090077131E-33  5.0031431457E-01
                       3.3333333333E-01  3.3333333333E-01  6.2735986478E-01
                      -1.5239162476E-33  3.0478324952E-33  7.2787076690E-01
            znucl       49.00000   34.00000

 chkinp: Checking input parameters for consistency, jdtset=   1.

== DATASET  1 ==================================================================
-   nproc =  128   -> not optimal: autoparal keyword recommended in input file

 Real(R)+Recip(G) space primitive vectors, cartesian coordinates (Bohr,Bohr^-1):
 R(1)=  7.7535935  0.0000000  0.0000000  G(1)=  0.1289725 -0.0744623  0.0000000
 R(2)=  3.8767967  6.7148089  0.0000000  G(2)=  0.0000000  0.1489246  0.0000000
 R(3)=  0.0000000  0.0000000 56.4037523  G(3)=  0.0000000  0.0000000  0.0177293
 Unit cell volume ucvol=  2.9365992E+03 bohr^3
 Angles (23,13,12)=  9.00000000E+01  9.00000000E+01  6.00000000E+01 degrees

 getcut: wavevector=  0.0000  0.0000  0.0000  ngfft=  40  40 288
         ecut(hartree)=     31.212   => boxcut(ratio)=   2.03029

--- Pseudopotential description ------------------------------------------------
- pspini: atom type   1  psp file is ../../In.psp8
- pspatm: opening atomic psp file    ../../In.psp8
- In    ONCVPSP-3.2.3.1  r_core=   2.10853   2.37566   1.87143
- 49.00000  13.00000    170510                znucl, zion, pspdat
    8   11    2    4       600   0.00000      pspcod,pspxc,lmax,lloc,mmax,r2well
    5.99000000000000    5.00000000000000    0.00000000000000   rchrg,fchrg,qchrg
     nproj     2     2     2
     extension_switch     1
  pspatm : epsatm=   25.32675270
         --- l  ekb(1:nproj) -->
[...]
 ETOT  127  -496.53036959188    -1.061E-08 1.779E-07 3.788E-02
 ETOT  128  -496.53036958238     9.501E-09 3.445E-08 5.409E-02
 ETOT  129  -496.53036958516    -2.780E-09 1.655E-07 4.040E-02
 ETOT  130  -496.53036959371    -8.548E-09 2.944E-08 3.387E-02
 ETOT  131  -496.53036961227    -1.856E-08 1.373E-07 2.668E-02
 ETOT  132  -496.53036961122     1.048E-09 2.632E-08 2.084E-02
 ETOT  133  -496.53036961424    -3.021E-09 1.135E-07 2.057E-02
 ETOT  134  -496.53036962301    -8.764E-09 2.515E-08 1.490E-02
 ETOT  135  -496.53036962604    -3.035E-09 1.020E-07 1.147E-02
 ETOT  136  -496.53036963460    -8.558E-09 2.463E-08 2.969E-03
 ETOT  137  -496.53036963508    -4.849E-10 8.881E-08 2.535E-03
 ETOT  138  -496.53036963524    -1.574E-10 2.106E-08 2.524E-03

 At SCF step  138, etot is converged :
  for the second time, diff in etot=  1.574E-10 < toldfe=  1.000E-09

 Computing the polarization (Berry phase) for reciprocal vector:
  0.03333  0.00000  0.00000 (in reduced coordinates)
  0.00430 -0.00248 -0.00000 (in cartesian coordinates - atomic units)
 Number of strings:    30
 Number of k points in string:   30

 Summary of the results
 Electronic Berry phase    -1.603535737E-04
            Ionic phase     3.333333331E-01
            Total phase     3.331729795E-01
    Remapping in [-1,1]     3.331729795E-01

           Polarization     7.618311915E-04 (a.u. of charge)/bohr^2
           Polarization     4.358798991E-02 C/m^2

[...]

 Computing the polarization (Berry phase) for reciprocal vector:
  0.00000  0.00000  1.00000 (in reduced coordinates)
  0.00000 -0.00000  0.01773 (in cartesian coordinates - atomic units)
 Number of strings:   900
 Number of k points in string:    1

 Summary of the results
 Electronic Berry phase     3.726320077E-01
            Ionic phase    -3.781984944E-01
            Total phase    -5.566486725E-03
    Remapping in [-1,1]    -5.566486725E-03

           Polarization    -1.069164410E-04 (a.u. of charge)/bohr^2
           Polarization    -6.117198673E-03 C/m^2

 Polarization in cartesian coordinates (a.u.):
 (the sum of the electronic and ionic Berry phase has been folded into [-1, 1])
     Electronic berry phase:       -0.635079783E-06  -0.366663551E-06   0.715720526E-02
     Ionic:                         0.132016541E-02   0.762197855E-03  -0.726412170E-02
     Total:                         0.131953033E-02   0.761831191E-03  -0.106916441E-03

 Polarization in cartesian coordinates (C/m^2):
 (the sum of the electronic and ionic Berry phase has been folded into [-1, 1])
     Electronic berry phase:       -0.363359383E-04  -0.209785676E-04   0.409497792E+00
     Ionic:                         0.755329491E-01   0.436089685E-01  -0.415614991E+00
     Total:                         0.754966131E-01   0.435879899E-01  -0.611719867E-02

 Cartesian components of stress tensor (hartree/bohr^3)
  sigma(1 1)= -4.55162972E-09  sigma(3 2)=  0.00000000E+00
  sigma(2 2)= -4.55161748E-09  sigma(3 1)=  0.00000000E+00
  sigma(3 3)=  6.72401548E-06  sigma(2 1)=  0.00000000E+00

 Integrated electronic density in atomic spheres:
 Atom  Sphere_radius  Integrated_density
    1        2.00000          9.88491472
    2        2.00000          9.85074808
    3        2.00000         13.20323543
    4        2.00000         13.24517670
    5        2.00000         13.21328058

 ----iterations are completed or convergence reached----

 Mean square residual over all n,k,spin=   20.145E-12; max=  21.059E-09
 reduced coordinates (array xred) for    5 atoms
       0.333333333330      0.333333333330      0.541975276730
       0.666666666663      0.666666666663      0.683646443700
      -0.000000000003     -0.000000000003      0.500314314570
       0.333333333330      0.333333333330      0.627359864780
      -0.000000000003     -0.000000000003      0.727870766900
 rms dE/dt=  8.2300E-04; max dE/dt=  2.0092E-03; dE/dt below (all hartree)
    1       0.000000000000     -0.000000000000      0.001199599442
    2       0.000000000000      0.000000000000      0.002009182300
    3       0.000000000000      0.000000000000     -0.000838698579
    4       0.000000000000      0.000000000000     -0.001173944228
    5       0.000000000000      0.000000000000     -0.001613253792

 cartesian coordinates (angstrom) at end:
    1      2.05151247151422     1.18444127766854    16.17665053622392
    2      4.10302494304895     2.36888255534892    20.40519205376334
    3     -0.00000000002051    -0.00000000001184    14.93317162712802
    4      2.05151247151422     1.18444127766854    18.72517387551342
    5     -0.00000000002051    -0.00000000001184    21.72518108707087

 cartesian forces (hartree/bohr) at end:
    1     -0.00000000000000     0.00000000000000    -0.00002274711098
    2      0.00000000000000     0.00000000000000    -0.00003710046205
    3      0.00000000000000    -0.00000000000000     0.00001339052061
    4      0.00000000000000    -0.00000000000000     0.00001933419697
    5      0.00000000000000    -0.00000000000000     0.00002712285545
 frms,max,avg= 1.4566267E-05 3.7100462E-05   0.000E+00  0.000E+00  1.479E-06 h/b

 cartesian forces (eV/Angstrom) at end:
    1     -0.00000000000000     0.00000000000000    -0.00116970337805
    2      0.00000000000000     0.00000000000000    -0.00190778230394
    3      0.00000000000000    -0.00000000000000     0.00068856819712
    4      0.00000000000000    -0.00000000000000     0.00099420429818
    5      0.00000000000000    -0.00000000000000     0.00139471318670
 frms,max,avg= 7.4902748E-04 1.9077823E-03   0.000E+00  0.000E+00  7.605E-05 e/A
 length scales=  1.000000000000  1.000000000000  1.000000000000 bohr
              =  0.529177208590  0.529177208590  0.529177208590 angstroms
 prteigrs : about to open file out_data/odat_DS1_EIG
 Fermi (or HOMO) energy (hartree) =  -0.10560   Average Vxc (hartree)=  -0.12877
 Eigenvalues (hartree) for nkpt=  91  k points:
 kpt#   1, nband= 38, wtk=  0.00111, kpt=  0.0000  0.0000  0.5000 (reduced coord)
  -1.85874   -1.85874   -1.85579   -1.85579   -1.85544   -1.83122   -1.82864   -1.82864
  -1.82331   -1.82331   -1.81673   -1.81673   -1.81397   -1.81397   -1.81369   -0.64633
  -0.64083   -0.64083   -0.63757   -0.63757   -0.61171   -0.61171   -0.61043   -0.60816
  -0.60816   -0.59135   -0.56274   -0.53239   -0.30240   -0.22658   -0.15525   -0.15525
  -0.14053   -0.11825   -0.11825   -0.10980   -0.10980   -0.07684
 prteigrs : prtvol=0 or 1, do not print more k-points.

 Components of total free energy (in Hartree) :

    Kinetic energy  =  3.18311342417926E+02
    Hartree energy  =  1.65095442246154E+03
    XC energy       = -1.12616590666993E+02
    Ewald energy    =  1.26371394678890E+03
    PspCore energy  =  3.50907831157807E+00
    Loc. psp. energy= -3.43194546152611E+03
    NL   psp  energy= -1.88457107422078E+02
    >>>>>>>>> Etotal= -4.96530369635242E+02

 Other information on the energy :
    Total energy(eV)= -1.35112784862923E+04 ; Band energy (Ha)=  -7.4263197792E+01

 Cartesian components of stress tensor (hartree/bohr^3)
  sigma(1 1)= -4.55162972E-09  sigma(3 2)=  0.00000000E+00
  sigma(2 2)= -4.55161748E-09  sigma(3 1)=  0.00000000E+00
  sigma(3 3)=  6.72401548E-06  sigma(2 1)=  0.00000000E+00

-Cartesian components of stress tensor (GPa)         [Pressure= -6.5853E-02 GPa]
- sigma(1 1)= -1.33913547E-04  sigma(3 2)=  0.00000000E+00
- sigma(2 2)= -1.33913187E-04  sigma(3 1)=  0.00000000E+00
- sigma(3 3)=  1.97827332E-01  sigma(2 1)=  0.00000000E+00

== END DATASET(S) ==============================================================

 -outvars: echo values of variables after computation  --------
            acell      1.0000000000E+00  1.0000000000E+00  1.0000000000E+00 Bohr
              amu      1.14820000E+02  7.89600000E+01
         berryopt          -1
          dilatmx      1.02000000E+00
             ecut      3.00000000E+01 Hartree
           ecutsm      5.00000000E-01 Hartree
           etotal1    -4.9653036964E+02
            fcart1    -2.2225732520E-28  3.3876074724E-22 -2.2747110976E-05
                       5.5564331299E-29  5.5251692351E-22 -3.7100462049E-05
                       5.5564331299E-29 -1.9941784290E-22  1.3390520613E-05
                       5.5564331299E-29 -2.8793378486E-22  1.9334196966E-05
                       5.5564331299E-29 -4.0392604300E-22  2.7122855446E-05
-          fftalg         112
           istwfk        1    0    0    0    0    0    0    0    0    0
                         0    0    0    0    0    1    0    0    0    0
                         0    0    0    0    0    0    0    0    0    0
                         0    0    0    0    0    0    0    0    0    0
                         0    0    0    0    0    0    0    0    0    0
                       outvar_i_n : Printing only first  50 k-points.
              ixc          11
           jdtset        1
              kpt      0.00000000E+00  0.00000000E+00  5.00000000E-01
                       3.33333333E-02  0.00000000E+00  5.00000000E-01
                       6.66666667E-02  0.00000000E+00  5.00000000E-01
                       1.00000000E-01  0.00000000E+00  5.00000000E-01
                       1.33333333E-01  0.00000000E+00  5.00000000E-01
                       1.66666667E-01  0.00000000E+00  5.00000000E-01
                       2.00000000E-01  0.00000000E+00  5.00000000E-01
                       2.33333333E-01  0.00000000E+00  5.00000000E-01
                       2.66666667E-01  0.00000000E+00  5.00000000E-01
                       3.00000000E-01  0.00000000E+00  5.00000000E-01
                       3.33333333E-01  0.00000000E+00  5.00000000E-01
                       3.66666667E-01  0.00000000E+00  5.00000000E-01
                       4.00000000E-01  0.00000000E+00  5.00000000E-01
                       4.33333333E-01  0.00000000E+00  5.00000000E-01
                       4.66666667E-01  0.00000000E+00  5.00000000E-01
                       5.00000000E-01  0.00000000E+00  5.00000000E-01
                       6.66666667E-02  3.33333333E-02  5.00000000E-01
                       1.00000000E-01  3.33333333E-02  5.00000000E-01
                       1.33333333E-01  3.33333333E-02  5.00000000E-01
                       1.66666667E-01  3.33333333E-02  5.00000000E-01
                       2.00000000E-01  3.33333333E-02  5.00000000E-01
                       2.33333333E-01  3.33333333E-02  5.00000000E-01
                       2.66666667E-01  3.33333333E-02  5.00000000E-01
                       3.00000000E-01  3.33333333E-02  5.00000000E-01
                       3.33333333E-01  3.33333333E-02  5.00000000E-01
                       3.66666667E-01  3.33333333E-02  5.00000000E-01
                       4.00000000E-01  3.33333333E-02  5.00000000E-01
                       4.33333333E-01  3.33333333E-02  5.00000000E-01
                       4.66666667E-01  3.33333333E-02  5.00000000E-01
                       5.00000000E-01  3.33333333E-02  5.00000000E-01
                       1.33333333E-01  6.66666667E-02  5.00000000E-01
                       1.66666667E-01  6.66666667E-02  5.00000000E-01
                       2.00000000E-01  6.66666667E-02  5.00000000E-01
                       2.33333333E-01  6.66666667E-02  5.00000000E-01
                       2.66666667E-01  6.66666667E-02  5.00000000E-01
                       3.00000000E-01  6.66666667E-02  5.00000000E-01
                       3.33333333E-01  6.66666667E-02  5.00000000E-01
                       3.66666667E-01  6.66666667E-02  5.00000000E-01
                       4.00000000E-01  6.66666667E-02  5.00000000E-01
                       4.33333333E-01  6.66666667E-02  5.00000000E-01
                       4.66666667E-01  6.66666667E-02  5.00000000E-01
                       5.00000000E-01  6.66666667E-02  5.00000000E-01
                      -4.66666667E-01  6.66666667E-02  5.00000000E-01
                       2.00000000E-01  1.00000000E-01  5.00000000E-01
                       2.33333333E-01  1.00000000E-01  5.00000000E-01
                       2.66666667E-01  1.00000000E-01  5.00000000E-01
                       3.00000000E-01  1.00000000E-01  5.00000000E-01
                       3.33333333E-01  1.00000000E-01  5.00000000E-01
                       3.66666667E-01  1.00000000E-01  5.00000000E-01
                       4.00000000E-01  1.00000000E-01  5.00000000E-01
                       outvar_i_n : Printing only first  50 k-points.
         kptrlatt       30    0    0      0   30    0      0    0    1
          kptrlen      2.32607804E+02
P           mkmem           1
            natom           5
            nband          38
           ndtset           1
            ngfft          40      40     288
             nkpt          91
            nstep         300
             nsym           6
           ntypat           2
              occ      2.000000  2.000000  2.000000  2.000000  2.000000  2.000000
                       2.000000  2.000000  2.000000  2.000000  2.000000  2.000000
                       2.000000  2.000000  2.000000  2.000000  2.000000  2.000000
                       2.000000  2.000000  2.000000  2.000000  2.000000  2.000000
                       2.000000  2.000000  2.000000  2.000000  2.000000  2.000000
                       2.000000  2.000000  2.000000  2.000000  2.000000  2.000000
                       2.000000  0.000000
            prtwf           0
            rfdir           1       1       1
            rprim      7.7535934588E+00  0.0000000000E+00  0.0000000000E+00
                       3.8767967294E+00  6.7148089059E+00  1.0000000000E-16
                       0.0000000000E+00 -1.1000000000E-15  5.6403752299E+01
           shiftk      0.00000000E+00  0.00000000E+00  5.00000000E-01
          spgroup         156
           strten1    -4.5516297235E-09 -4.5516174753E-09  6.7240154810E-06
                       0.0000000000E+00  0.0000000000E+00  0.0000000000E+00
           symrel      1  0  0   0  1  0   0  0  1      -1  0  0  -1  1  0   0  0  1
                      -1  1  0  -1  0  0   0  0  1       1 -1  0   0 -1  0   0  0  1
                       0 -1  0   1 -1  0   0  0  1       0  1  0   1  0  0   0  0  1
            tnons      0.0000000  0.0000000  0.0000000    -0.0000000  0.0000000  0.0000000
                      -0.0000000 -0.0000000  0.0000000     0.0000000 -0.0000000  0.0000000
                       0.0000000 -0.0000000  0.0000000     0.0000000 -0.0000000  0.0000000
           toldfe      1.00000000E-09 Hartree
           tolmxf      5.00000000E-06
            typat      1  1  2  2  2
              wtk        0.00111    0.00667    0.00667    0.00667    0.00667    0.00667
                         0.00667    0.00667    0.00667    0.00667    0.00667    0.00667
                         0.00667    0.00667    0.00667    0.00333    0.00667    0.01333
                         0.01333    0.01333    0.01333    0.01333    0.01333    0.01333
                         0.01333    0.01333    0.01333    0.01333    0.01333    0.01333
                         0.00667    0.01333    0.01333    0.01333    0.01333    0.01333
                         0.01333    0.01333    0.01333    0.01333    0.01333    0.01333
                         0.00667    0.00667    0.01333    0.01333    0.01333    0.01333
                         0.01333    0.01333
                       outvars : Printing only first  50 k-points.
           xangst      2.0515124715E+00  1.1844412777E+00  1.6176650536E+01
                       4.1030249430E+00  2.3688825553E+00  2.0405192054E+01
                      -2.0514936610E-11 -1.1844770737E-11  1.4933171627E+01
                       2.0515124715E+00  1.1844412777E+00  1.8725173876E+01
                      -2.0514936610E-11 -1.1844903196E-11  2.1725181087E+01
            xcart      3.8767967294E+00  2.2382696353E+00  3.0569439261E+01
                       7.7535934588E+00  4.4765392706E+00  3.8560224671E+01
                      -3.8767611826E-11 -2.2383372800E-11  2.8219604671E+01
                       3.8767967294E+00  2.2382696353E+00  3.5385450415E+01
                      -3.8767611826E-11 -2.2383623112E-11  4.1054642442E+01
             xred      3.3333333333E-01  3.3333333333E-01  5.4197527673E-01
                       6.6666666666E-01  6.6666666666E-01  6.8364644370E-01
                      -3.3332780980E-12 -3.3333521129E-12  5.0031431457E-01
                       3.3333333333E-01  3.3333333333E-01  6.2735986478E-01
                      -3.3332780980E-12 -3.3333521129E-12  7.2787076690E-01
            znucl       49.00000   34.00000

- Timing analysis has been suppressed with timopt=0

 Suggested references for the acknowledgment of ABINIT usage.

 Calculation completed.
.Delivered   0 WARNINGs and   0 COMMENTs to log file.