.Version 5.8.4  of ABINIT

 ABINIT is a project of the Universite Catholique de Louvain,
 Corning Inc. and other collaborators, see ~abinit/doc/developers/contributors.txt .
 Please read ~abinit/doc/users/acknowledgments.html for suggested
 acknowledgments of the ABINIT effort.

.Starting date : Thu 15 Jul 2010.

- input  file    -> tgw2_3.in
- output file    -> tgw2_3.out
- root for input  files -> tgw2i
- root for output files -> tgw2o

 Symmetries : space group Fd -3 m (#227); Bravais cF (face-center cubic)
   intxc =         0  ionmov =         0    iscf =         7 xclevel =         1
  lmnmax =         4   lnmax =         4   mband =       100  mffmem =         1
P  mgfft =        30   mkmem =         9 mpssoang=         3     mpw =       886
  mqgrid =      3001   natom =         2    nfft =     27000    nkpt =        72
  nloalg =         4  nspden =         1 nspinor =         1  nsppol =         1
    nsym =        48  n1xccc =         0  ntypat =         1  occopt =         1
  Rough estimation (10% accuracy) of disk space for files :

 -outvars: echo values of preprocessed input variables --------
     acell    1.0259000000E+01  1.0259000000E+01  1.0259000000E+01 Bohr
       amu    2.80855000E+01
      bdgw         1      50       1      50       1      50       1      50
                   1      50       1      50       1      50       1      50
      ecut    1.65044993E+01 Hartree
  ecutsigx    1.65044993E+01 Hartree
   ecutwfn    1.65044993E+01 Hartree
    enunit         1
 gwcalctyp        28
    istwfk      1    0    0    0    0    0    1    0    0    0
                0    0    0    0    0    0    0    0    0    0
                0    0    0    0    0    0    0    0    0    0
                0    0    0    0    0    0    0    0    0    0
                0    0    1    0    0    0    0    0    0    0
                0    0    0    0    0    0    0    0    0    0
                0    0    0    0    0    0    0    0    0    0
                0    0
       ixc         3
       kpt    0.00000000E+00  0.00000000E+00  0.00000000E+00
              8.33333333E-02  0.00000000E+00  0.00000000E+00
              1.66666667E-01  0.00000000E+00  0.00000000E+00
              2.50000000E-01  0.00000000E+00  0.00000000E+00
              3.33333333E-01  0.00000000E+00  0.00000000E+00
              4.16666667E-01  0.00000000E+00  0.00000000E+00
              5.00000000E-01  0.00000000E+00  0.00000000E+00
              8.33333333E-02  8.33333333E-02  0.00000000E+00
              1.66666667E-01  8.33333333E-02  0.00000000E+00
              2.50000000E-01  8.33333333E-02  0.00000000E+00
              3.33333333E-01  8.33333333E-02  0.00000000E+00
              4.16666667E-01  8.33333333E-02  0.00000000E+00
              5.00000000E-01  8.33333333E-02  0.00000000E+00
             -4.16666667E-01  8.33333333E-02  0.00000000E+00
             -3.33333333E-01  8.33333333E-02  0.00000000E+00
             -2.50000000E-01  8.33333333E-02  0.00000000E+00
             -1.66666667E-01  8.33333333E-02  0.00000000E+00
             -8.33333333E-02  8.33333333E-02  0.00000000E+00
              1.66666667E-01  1.66666667E-01  0.00000000E+00
              2.50000000E-01  1.66666667E-01  0.00000000E+00
              3.33333333E-01  1.66666667E-01  0.00000000E+00
              4.16666667E-01  1.66666667E-01  0.00000000E+00
              5.00000000E-01  1.66666667E-01  0.00000000E+00
             -4.16666667E-01  1.66666667E-01  0.00000000E+00
             -3.33333333E-01  1.66666667E-01  0.00000000E+00
             -2.50000000E-01  1.66666667E-01  0.00000000E+00
             -1.66666667E-01  1.66666667E-01  0.00000000E+00
              2.50000000E-01  2.50000000E-01  0.00000000E+00
              3.33333333E-01  2.50000000E-01  0.00000000E+00
              4.16666667E-01  2.50000000E-01  0.00000000E+00
              5.00000000E-01  2.50000000E-01  0.00000000E+00
             -4.16666667E-01  2.50000000E-01  0.00000000E+00
             -3.33333333E-01  2.50000000E-01  0.00000000E+00
             -2.50000000E-01  2.50000000E-01  0.00000000E+00
              3.33333333E-01  3.33333333E-01  0.00000000E+00
              4.16666667E-01  3.33333333E-01  0.00000000E+00
              5.00000000E-01  3.33333333E-01  0.00000000E+00
             -4.16666667E-01  3.33333333E-01  0.00000000E+00
             -3.33333333E-01  3.33333333E-01  0.00000000E+00
              4.16666667E-01  4.16666667E-01  0.00000000E+00
              5.00000000E-01  4.16666667E-01  0.00000000E+00
             -4.16666667E-01  4.16666667E-01  0.00000000E+00
              5.00000000E-01  5.00000000E-01  0.00000000E+00
              2.50000000E-01  1.66666667E-01  8.33333333E-02
              3.33333333E-01  1.66666667E-01  8.33333333E-02
              4.16666667E-01  1.66666667E-01  8.33333333E-02
              5.00000000E-01  1.66666667E-01  8.33333333E-02
             -4.16666667E-01  1.66666667E-01  8.33333333E-02
              3.33333333E-01  2.50000000E-01  8.33333333E-02
              4.16666667E-01  2.50000000E-01  8.33333333E-02
              5.00000000E-01  2.50000000E-01  8.33333333E-02
             -4.16666667E-01  2.50000000E-01  8.33333333E-02
             -3.33333333E-01  2.50000000E-01  8.33333333E-02
             -2.50000000E-01  2.50000000E-01  8.33333333E-02
             -1.66666667E-01  2.50000000E-01  8.33333333E-02
              4.16666667E-01  3.33333333E-01  8.33333333E-02
              5.00000000E-01  3.33333333E-01  8.33333333E-02
             -4.16666667E-01  3.33333333E-01  8.33333333E-02
             -3.33333333E-01  3.33333333E-01  8.33333333E-02
             -2.50000000E-01  3.33333333E-01  8.33333333E-02
              5.00000000E-01  4.16666667E-01  8.33333333E-02
             -4.16666667E-01  4.16666667E-01  8.33333333E-02
             -3.33333333E-01  4.16666667E-01  8.33333333E-02
             -4.16666667E-01  5.00000000E-01  8.33333333E-02
              5.00000000E-01  3.33333333E-01  1.66666667E-01
             -4.16666667E-01  3.33333333E-01  1.66666667E-01
             -3.33333333E-01  3.33333333E-01  1.66666667E-01
             -4.16666667E-01  4.16666667E-01  1.66666667E-01
             -3.33333333E-01  4.16666667E-01  1.66666667E-01
             -2.50000000E-01  4.16666667E-01  1.66666667E-01
             -3.33333333E-01  5.00000000E-01  1.66666667E-01
             -2.50000000E-01  5.00000000E-01  2.50000000E-01
     kptgw    0.00000000E+00  0.00000000E+00  0.00000000E+00
              2.50000000E-01  0.00000000E+00  0.00000000E+00
              5.00000000E-01  0.00000000E+00  0.00000000E+00
              2.50000000E-01  2.50000000E-01  0.00000000E+00
              5.00000000E-01  2.50000000E-01  0.00000000E+00
             -2.50000000E-01  2.50000000E-01  0.00000000E+00
              5.00000000E-01  5.00000000E-01  0.00000000E+00
             -2.50000000E-01  5.00000000E-01  2.50000000E-01
   kptrlen    8.70505016E+01
  kptrlatt   12  0  0   0 12  0   0  0 12
P    mkmem         9
     natom         2
     nband       100
     ngfft        30      30      30
    nkptgw         8
      nkpt        72
   npwsigx       893
    npwwfn       893
   nshsigx        40
    nshwfn        40
     nstep        50
      nsym        48
    ntypat         1
       occ    2.000000  2.000000  2.000000  2.000000  0.000000  0.000000
              0.000000  0.000000  0.000000  0.000000  0.000000  0.000000
              0.000000  0.000000  0.000000  0.000000  0.000000  0.000000
              0.000000  0.000000  0.000000  0.000000  0.000000  0.000000
              0.000000  0.000000  0.000000  0.000000  0.000000  0.000000
              0.000000  0.000000  0.000000  0.000000  0.000000  0.000000
              0.000000  0.000000  0.000000  0.000000  0.000000  0.000000
              0.000000  0.000000  0.000000  0.000000  0.000000  0.000000
              0.000000  0.000000  0.000000  0.000000  0.000000  0.000000
              0.000000  0.000000  0.000000  0.000000  0.000000  0.000000
              0.000000  0.000000  0.000000  0.000000  0.000000  0.000000
              0.000000  0.000000  0.000000  0.000000  0.000000  0.000000
              0.000000  0.000000  0.000000  0.000000  0.000000  0.000000
              0.000000  0.000000  0.000000  0.000000  0.000000  0.000000
              0.000000  0.000000  0.000000  0.000000  0.000000  0.000000
              0.000000  0.000000  0.000000  0.000000  0.000000  0.000000
              0.000000  0.000000  0.000000  0.000000
 optdriver         4
    prtvol         5
     rprim    0.0000000000E+00  5.0000000000E-01  5.0000000000E-01
              5.0000000000E-01  0.0000000000E+00  5.0000000000E-01
              5.0000000000E-01  5.0000000000E-01  0.0000000000E+00
   spgroup       227
    symrel    1  0  0   0  1  0   0  0  1      -1  0  0   0 -1  0   0  0 -1
              0 -1  1   0 -1  0   1 -1  0       0  1 -1   0  1  0  -1  1  0
             -1  0  0  -1  0  1  -1  1  0       1  0  0   1  0 -1   1 -1  0
              0  1 -1   1  0 -1   0  0 -1       0 -1  1  -1  0  1   0  0  1
             -1  0  0  -1  1  0  -1  0  1       1  0  0   1 -1  0   1  0 -1
              0 -1  1   1 -1  0   0 -1  0       0  1 -1  -1  1  0   0  1  0
              1  0  0   0  0  1   0  1  0      -1  0  0   0  0 -1   0 -1  0
              0  1 -1   0  0 -1   1  0 -1       0 -1  1   0  0  1  -1  0  1
             -1  0  1  -1  1  0  -1  0  0       1  0 -1   1 -1  0   1  0  0
              0 -1  0   1 -1  0   0 -1  1       0  1  0  -1  1  0   0  1 -1
              1  0 -1   0  0 -1   0  1 -1      -1  0  1   0  0  1   0 -1  1
              0  1  0   0  0  1   1  0  0       0 -1  0   0  0 -1  -1  0  0
              1  0 -1   0  1 -1   0  0 -1      -1  0  1   0 -1  1   0  0  1
              0 -1  0   0 -1  1   1 -1  0       0  1  0   0  1 -1  -1  1  0
             -1  0  1  -1  0  0  -1  1  0       1  0 -1   1  0  0   1 -1  0
              0  1  0   1  0  0   0  0  1       0 -1  0  -1  0  0   0  0 -1
              0  0 -1   0  1 -1   1  0 -1       0  0  1   0 -1  1  -1  0  1
              1 -1  0   0 -1  1   0 -1  0      -1  1  0   0  1 -1   0  1  0
              0  0  1   1  0  0   0  1  0       0  0 -1  -1  0  0   0 -1  0
             -1  1  0  -1  0  0  -1  0  1       1 -1  0   1  0  0   1  0 -1
              0  0  1   0  1  0   1  0  0       0  0 -1   0 -1  0  -1  0  0
              1 -1  0   0 -1  0   0 -1  1      -1  1  0   0  1  0   0  1 -1
              0  0 -1   1  0 -1   0  1 -1       0  0  1  -1  0  1   0 -1  1
             -1  1  0  -1  0  1  -1  0  0       1 -1  0   1  0 -1   1  0  0
     tnons    0.0000000  0.0000000  0.0000000     0.2500000  0.2500000  0.2500000
              0.0000000  0.0000000  0.0000000     0.2500000  0.2500000  0.2500000
              0.0000000  0.0000000  0.0000000     0.2500000  0.2500000  0.2500000
              0.0000000  0.0000000  0.0000000     0.2500000  0.2500000  0.2500000
              0.0000000  0.0000000  0.0000000     0.2500000  0.2500000  0.2500000
              0.0000000  0.0000000  0.0000000     0.2500000  0.2500000  0.2500000
              0.0000000  0.0000000  0.0000000     0.2500000  0.2500000  0.2500000
[...]
   44    54.858    -9.139    54.858    63.996    -1.065    -5.756     1.000     0.000    -6.821     2.318    57.175    57.206
   45    54.961    -9.243    54.961    64.204    -1.176    -4.729     1.000     0.000    -5.905     3.338    58.299    58.330
   46    54.961    -9.243    54.961    64.204    -1.176    -4.729     1.000     0.000    -5.905     3.338    58.299    58.333
   47    57.538    -9.604    57.538    67.142    -1.181    -4.075     1.000     0.000    -5.256     4.348    61.885    61.967
   48    57.538    -9.604    57.538    67.142    -1.181    -4.075     1.000     0.000    -5.256     4.348    61.885    61.968
   49    61.383    -9.343    61.383    70.726    -0.986    -5.457     1.000     0.000    -6.443     2.900    64.283    64.427
   50    61.383    -9.343    61.383    70.726    -0.986    -5.457     1.000     0.000    -6.443     2.900    64.283    64.427

 E^0_gap          8.077
 E^GW_gap         8.915
 DeltaE^GW_gap    0.838

 writing QP data on file : tgw2o_QPS

 Convergence of QP corrections
 >>>>> For spin  1 <<<<<
   kptgw no:  1; Maximum DeltaE = (   7.377  -1.830) for band index: 41
   kptgw no:  2; Maximum DeltaE = (   5.040  -2.268) for band index: 42
   kptgw no:  3; Maximum DeltaE = (   3.763  -2.595) for band index: 45
   kptgw no:  4; Maximum DeltaE = (   3.990  -1.823) for band index: 49
   kptgw no:  5; Maximum DeltaE = (   4.008  -1.650) for band index: 50
   kptgw no:  6; Maximum DeltaE = (   3.763  -2.300) for band index: 37
   kptgw no:  7; Maximum DeltaE = (   4.219  -2.493) for band index: 49
   kptgw no:  8; Maximum DeltaE = (   4.348  -1.729) for band index: 47

== END DATASET(S) ==============================================================

 -outvars: echo values of variables after computation  --------
     acell    1.0259000000E+01  1.0259000000E+01  1.0259000000E+01 Bohr
       amu    2.80855000E+01
      bdgw         1      50       1      50       1      50       1      50
                   1      50       1      50       1      50       1      50
      ecut    1.65044993E+01 Hartree
  ecutsigx    1.65044993E+01 Hartree
   ecutwfn    1.65044993E+01 Hartree
    enunit         1
    etotal    0.0000000000E+00
     fcart    0.0000000000E+00  0.0000000000E+00  0.0000000000E+00
              0.0000000000E+00  0.0000000000E+00  0.0000000000E+00
 gwcalctyp        28
    istwfk      1    0    0    0    0    0    1    0    0    0
                0    0    0    0    0    0    0    0    0    0
                0    0    0    0    0    0    0    0    0    0
                0    0    0    0    0    0    0    0    0    0
                0    0    1    0    0    0    0    0    0    0
                0    0    0    0    0    0    0    0    0    0
                0    0    0    0    0    0    0    0    0    0
                0    0
       ixc         3
       kpt    0.00000000E+00  0.00000000E+00  0.00000000E+00
              8.33333333E-02  0.00000000E+00  0.00000000E+00
              1.66666667E-01  0.00000000E+00  0.00000000E+00
              2.50000000E-01  0.00000000E+00  0.00000000E+00
              3.33333333E-01  0.00000000E+00  0.00000000E+00
              4.16666667E-01  0.00000000E+00  0.00000000E+00
              5.00000000E-01  0.00000000E+00  0.00000000E+00
              8.33333333E-02  8.33333333E-02  0.00000000E+00
              1.66666667E-01  8.33333333E-02  0.00000000E+00
              2.50000000E-01  8.33333333E-02  0.00000000E+00
              3.33333333E-01  8.33333333E-02  0.00000000E+00
              4.16666667E-01  8.33333333E-02  0.00000000E+00
              5.00000000E-01  8.33333333E-02  0.00000000E+00
             -4.16666667E-01  8.33333333E-02  0.00000000E+00
             -3.33333333E-01  8.33333333E-02  0.00000000E+00
             -2.50000000E-01  8.33333333E-02  0.00000000E+00
             -1.66666667E-01  8.33333333E-02  0.00000000E+00
             -8.33333333E-02  8.33333333E-02  0.00000000E+00
              1.66666667E-01  1.66666667E-01  0.00000000E+00
              2.50000000E-01  1.66666667E-01  0.00000000E+00
              3.33333333E-01  1.66666667E-01  0.00000000E+00
              4.16666667E-01  1.66666667E-01  0.00000000E+00
              5.00000000E-01  1.66666667E-01  0.00000000E+00
             -4.16666667E-01  1.66666667E-01  0.00000000E+00
             -3.33333333E-01  1.66666667E-01  0.00000000E+00
             -2.50000000E-01  1.66666667E-01  0.00000000E+00
             -1.66666667E-01  1.66666667E-01  0.00000000E+00
              2.50000000E-01  2.50000000E-01  0.00000000E+00
              3.33333333E-01  2.50000000E-01  0.00000000E+00
              4.16666667E-01  2.50000000E-01  0.00000000E+00
              5.00000000E-01  2.50000000E-01  0.00000000E+00
             -4.16666667E-01  2.50000000E-01  0.00000000E+00
             -3.33333333E-01  2.50000000E-01  0.00000000E+00
             -2.50000000E-01  2.50000000E-01  0.00000000E+00
              3.33333333E-01  3.33333333E-01  0.00000000E+00
              4.16666667E-01  3.33333333E-01  0.00000000E+00
              5.00000000E-01  3.33333333E-01  0.00000000E+00
             -4.16666667E-01  3.33333333E-01  0.00000000E+00
             -3.33333333E-01  3.33333333E-01  0.00000000E+00
              4.16666667E-01  4.16666667E-01  0.00000000E+00
              5.00000000E-01  4.16666667E-01  0.00000000E+00
             -4.16666667E-01  4.16666667E-01  0.00000000E+00
              5.00000000E-01  5.00000000E-01  0.00000000E+00
              2.50000000E-01  1.66666667E-01  8.33333333E-02
              3.33333333E-01  1.66666667E-01  8.33333333E-02
              4.16666667E-01  1.66666667E-01  8.33333333E-02
              5.00000000E-01  1.66666667E-01  8.33333333E-02
             -4.16666667E-01  1.66666667E-01  8.33333333E-02
              3.33333333E-01  2.50000000E-01  8.33333333E-02
              4.16666667E-01  2.50000000E-01  8.33333333E-02
              5.00000000E-01  2.50000000E-01  8.33333333E-02
             -4.16666667E-01  2.50000000E-01  8.33333333E-02
             -3.33333333E-01  2.50000000E-01  8.33333333E-02
             -2.50000000E-01  2.50000000E-01  8.33333333E-02
             -1.66666667E-01  2.50000000E-01  8.33333333E-02
              4.16666667E-01  3.33333333E-01  8.33333333E-02
              5.00000000E-01  3.33333333E-01  8.33333333E-02
             -4.16666667E-01  3.33333333E-01  8.33333333E-02
             -3.33333333E-01  3.33333333E-01  8.33333333E-02
             -2.50000000E-01  3.33333333E-01  8.33333333E-02
              5.00000000E-01  4.16666667E-01  8.33333333E-02
             -4.16666667E-01  4.16666667E-01  8.33333333E-02
             -3.33333333E-01  4.16666667E-01  8.33333333E-02
             -4.16666667E-01  5.00000000E-01  8.33333333E-02
              5.00000000E-01  3.33333333E-01  1.66666667E-01
             -4.16666667E-01  3.33333333E-01  1.66666667E-01
             -3.33333333E-01  3.33333333E-01  1.66666667E-01
             -4.16666667E-01  4.16666667E-01  1.66666667E-01
             -3.33333333E-01  4.16666667E-01  1.66666667E-01
             -2.50000000E-01  4.16666667E-01  1.66666667E-01
             -3.33333333E-01  5.00000000E-01  1.66666667E-01
             -2.50000000E-01  5.00000000E-01  2.50000000E-01
     kptgw    0.00000000E+00  0.00000000E+00  0.00000000E+00
              2.50000000E-01  0.00000000E+00  0.00000000E+00
              5.00000000E-01  0.00000000E+00  0.00000000E+00
              2.50000000E-01  2.50000000E-01  0.00000000E+00
              5.00000000E-01  2.50000000E-01  0.00000000E+00
             -2.50000000E-01  2.50000000E-01  0.00000000E+00
              5.00000000E-01  5.00000000E-01  0.00000000E+00
             -2.50000000E-01  5.00000000E-01  2.50000000E-01
   kptrlen    8.70505016E+01
  kptrlatt   12  0  0   0 12  0   0  0 12
P    mkmem         9
     natom         2
     nband       100
     ngfft        30      30      30
    nkptgw         8
      nkpt        72
   npwsigx       893
    npwwfn       893
   nshsigx        40
    nshwfn        40
     nstep        50
      nsym        48
    ntypat         1
       occ    2.000000  2.000000  2.000000  2.000000  0.000000  0.000000
              0.000000  0.000000  0.000000  0.000000  0.000000  0.000000
              0.000000  0.000000  0.000000  0.000000  0.000000  0.000000
              0.000000  0.000000  0.000000  0.000000  0.000000  0.000000
              0.000000  0.000000  0.000000  0.000000  0.000000  0.000000
              0.000000  0.000000  0.000000  0.000000  0.000000  0.000000
              0.000000  0.000000  0.000000  0.000000  0.000000  0.000000
              0.000000  0.000000  0.000000  0.000000  0.000000  0.000000
              0.000000  0.000000  0.000000  0.000000  0.000000  0.000000
              0.000000  0.000000  0.000000  0.000000  0.000000  0.000000
              0.000000  0.000000  0.000000  0.000000  0.000000  0.000000
              0.000000  0.000000  0.000000  0.000000  0.000000  0.000000
              0.000000  0.000000  0.000000  0.000000  0.000000  0.000000
              0.000000  0.000000  0.000000  0.000000  0.000000  0.000000
              0.000000  0.000000  0.000000  0.000000  0.000000  0.000000
              0.000000  0.000000  0.000000  0.000000  0.000000  0.000000
              0.000000  0.000000  0.000000  0.000000
 optdriver         4
    prtvol         5
     rprim    0.0000000000E+00  5.0000000000E-01  5.0000000000E-01
              5.0000000000E-01  0.0000000000E+00  5.0000000000E-01
              5.0000000000E-01  5.0000000000E-01  0.0000000000E+00
   spgroup       227
    strten    0.0000000000E+00  0.0000000000E+00  0.0000000000E+00
              0.0000000000E+00  0.0000000000E+00  0.0000000000E+00
    symrel    1  0  0   0  1  0   0  0  1      -1  0  0   0 -1  0   0  0 -1
              0 -1  1   0 -1  0   1 -1  0       0  1 -1   0  1  0  -1  1  0
             -1  0  0  -1  0  1  -1  1  0       1  0  0   1  0 -1   1 -1  0
              0  1 -1   1  0 -1   0  0 -1       0 -1  1  -1  0  1   0  0  1
             -1  0  0  -1  1  0  -1  0  1       1  0  0   1 -1  0   1  0 -1
              0 -1  1   1 -1  0   0 -1  0       0  1 -1  -1  1  0   0  1  0
              1  0  0   0  0  1   0  1  0      -1  0  0   0  0 -1   0 -1  0
              0  1 -1   0  0 -1   1  0 -1       0 -1  1   0  0  1  -1  0  1
             -1  0  1  -1  1  0  -1  0  0       1  0 -1   1 -1  0   1  0  0
              0 -1  0   1 -1  0   0 -1  1       0  1  0  -1  1  0   0  1 -1
              1  0 -1   0  0 -1   0  1 -1      -1  0  1   0  0  1   0 -1  1
              0  1  0   0  0  1   1  0  0       0 -1  0   0  0 -1  -1  0  0
              1  0 -1   0  1 -1   0  0 -1      -1  0  1   0 -1  1   0  0  1
              0 -1  0   0 -1  1   1 -1  0       0  1  0   0  1 -1  -1  1  0
             -1  0  1  -1  0  0  -1  1  0       1  0 -1   1  0  0   1 -1  0
              0  1  0   1  0  0   0  0  1       0 -1  0  -1  0  0   0  0 -1
              0  0 -1   0  1 -1   1  0 -1       0  0  1   0 -1  1  -1  0  1
              1 -1  0   0 -1  1   0 -1  0      -1  1  0   0  1 -1   0  1  0
              0  0  1   1  0  0   0  1  0       0  0 -1  -1  0  0   0 -1  0
             -1  1  0  -1  0  0  -1  0  1       1 -1  0   1  0  0   1  0 -1
              0  0  1   0  1  0   1  0  0       0  0 -1   0 -1  0  -1  0  0
              1 -1  0   0 -1  0   0 -1  1      -1  1  0   0  1  0   0  1 -1
              0  0 -1   1  0 -1   0  1 -1       0  0  1  -1  0  1   0 -1  1
             -1  1  0  -1  0  1  -1  0  0       1 -1  0   1  0 -1   1  0  0
     tnons    0.0000000  0.0000000  0.0000000     0.2500000  0.2500000  0.2500000
              0.0000000  0.0000000  0.0000000     0.2500000  0.2500000  0.2500000
              0.0000000  0.0000000  0.0000000     0.2500000  0.2500000  0.2500000
              0.0000000  0.0000000  0.0000000     0.2500000  0.2500000  0.2500000
              0.0000000  0.0000000  0.0000000     0.2500000  0.2500000  0.2500000
              0.0000000  0.0000000  0.0000000     0.2500000  0.2500000  0.2500000
              0.0000000  0.0000000  0.0000000     0.2500000  0.2500000  0.2500000
              0.0000000  0.0000000  0.0000000     0.2500000  0.2500000  0.2500000
              0.0000000  0.0000000  0.0000000     0.2500000  0.2500000  0.2500000
              0.0000000  0.0000000  0.0000000     0.2500000  0.2500000  0.2500000
              0.0000000  0.0000000  0.0000000     0.2500000  0.2500000  0.2500000
              0.0000000  0.0000000  0.0000000     0.2500000  0.2500000  0.2500000
              0.0000000  0.0000000  0.0000000     0.2500000  0.2500000  0.2500000
              0.0000000  0.0000000  0.0000000     0.2500000  0.2500000  0.2500000
              0.0000000  0.0000000  0.0000000     0.2500000  0.2500000  0.2500000
              0.0000000  0.0000000  0.0000000     0.2500000  0.2500000  0.2500000
              0.0000000  0.0000000  0.0000000     0.2500000  0.2500000  0.2500000
              0.0000000  0.0000000  0.0000000     0.2500000  0.2500000  0.2500000
              0.0000000  0.0000000  0.0000000     0.2500000  0.2500000  0.2500000
              0.0000000  0.0000000  0.0000000     0.2500000  0.2500000  0.2500000
              0.0000000  0.0000000  0.0000000     0.2500000  0.2500000  0.2500000
              0.0000000  0.0000000  0.0000000     0.2500000  0.2500000  0.2500000
              0.0000000  0.0000000  0.0000000     0.2500000  0.2500000  0.2500000
              0.0000000  0.0000000  0.0000000     0.2500000  0.2500000  0.2500000
    toldfe    1.00000000E-10 Hartree
     typat    1  1
       wtk      0.00058    0.00463    0.00463    0.00463    0.00463    0.00463
                0.00231    0.00347    0.01389    0.01389    0.01389    0.01389
                0.01389    0.01389    0.01389    0.01389    0.01389    0.00694
                0.00347    0.01389    0.01389    0.01389    0.01389    0.01389
                0.01389    0.01389    0.00694    0.00347    0.01389    0.01389
                0.01389    0.01389    0.01389    0.00694    0.00347    0.01389
                0.01389    0.01389    0.00694    0.00347    0.01389    0.00694
                0.00174    0.01389    0.02778    0.02778    0.02778    0.01389
                0.01389    0.02778    0.02778    0.02778    0.02778    0.02778
                0.01389    0.01389    0.02778    0.02778    0.02778    0.01389
                0.01389    0.02778    0.01389    0.00694    0.01389    0.02778
                0.01389    0.01389    0.02778    0.01389    0.00694    0.00347
    xangst    0.0000000000E+00  0.0000000000E+00  0.0000000000E+00
              4.0716217372E+00  1.3572072457E+00  4.0716217372E+00
     xcart    0.0000000000E+00  0.0000000000E+00  0.0000000000E+00
              7.6942500000E+00  2.5647500000E+00  7.6942500000E+00
      xred    0.0000000000E+00  0.0000000000E+00  0.0000000000E+00
              2.5000000000E-01  1.2500000000E+00  2.5000000000E-01
     znucl     14.00000

- Timing analysis has been suppressed with timopt=0

 Suggested references for the acknowledgment of ABINIT usage.

 [1] Effect of self-consistency on quasiparticles in solids
 F. Bruneval, N. Vast, L. Reining, Phys. Rev. B 74, 045102 (2006).
 Comment : in case gwcalctyp >= 10.

 [2] A brief introduction to the ABINIT software package.
 X. Gonze, G.-M. Rignanese, M. Verstraete, J.-M. Beuken, Y. Pouillon, R. Caracas, F. Jollet,
 M. Torrent, G. Zerah, M. Mikami, Ph. Ghosez, M. Veithen, J.-Y. Raty, V. Olevano, F. Bruneval,
 L. Reining, R. Godby, G. Onida, D.R. Hamann, and D.C. Allan.
 Z. Kristallogr. 220, 558-562 (2005).
 Comment : the second generic paper describing the ABINIT project. Note that this paper
 should be cited, especially if you are using the GW part of ABINIT, as the authors
 of this part are not in the list of authors of the first paper.
 Note that it should not redistributed (Copyright by Oldenburg Wissenshaftverlag,
 the licence allows the authors to put it on the Web).

 [3] First-principles computation of material properties : the ABINIT software project.
 X. Gonze, J.-M. Beuken, R. Caracas, F. Detraux, M. Fuchs, G.-M. Rignanese, L. Sindic,
 M. Verstraete, G. Zerah, F. Jollet, M. Torrent, A. Roy, M. Mikami, Ph. Ghosez, J.-Y. Raty, D.C. Allan.
 Comment : the original paper describing the ABINIT project.

 And optionally :

 [4] Fast radix 2, 3, 4 and 5 kernels for Fast Fourier Transformations
 on computers with overlapping multiply-add instructions.
 S. Goedecker, SIAM J. on Scientific Computing 18, 1605 (1997).

 [5] Iterative minimization techniques for ab initio total-energy calculations:
 molecular dynamics and conjugate gradients.
 M.C. Payne, M.P. Teter, D.C. Allan, T.A. Arias and J.D. Joannopoulos, Rev. Mod. Phys. 64, 1045 (1992).
-

 Calculation completed.
.Delivered    3 WARNINGs and   1 COMMENTs to log file.