.Version 8.8.4 of ABINIT

 ABINIT is a project of the Universite Catholique de Louvain,
 Corning Inc. and other collaborators, see ~abinit/doc/developers/contributors.txt .
 Please read ~abinit/doc/users/acknowledgments.html for suggested
 acknowledgments of the ABINIT effort.

.Starting date : Tue  1 Sep 2020.
- ( at 09h24 )

- The starting date is more than 2 years after the initial release
- of this version of ABINIT, namely Jul 2018.
- Note that the use beyond 3 years after the release will not be supported.
- Action: please, switch to a more recent version of ABINIT.

- input  file    -> run.in
- output file    -> run.out
- root for input  files -> in
- root for output files -> out

 DATASET   11 : the unit cell is not primitive
     intxc =       0    ionmov =       0      iscf =       7    lmnmax =       6
     lnmax =       6     mgfft =      45  mpssoang =       3    mqgrid =    3001
     natom =       8  nloc_mem =       1    nspden =       1   nspinor =       1
    nsppol =       1      nsym =      96    n1xccc =    2501    ntypat =       2
    occopt =       1   xclevel =       2
-    mband =          36        mffmem =           1         mkmem =           3
       mpw =        4913          nfft =       91125          nkpt =         480
  Rough estimation (10% accuracy) of disk space for files :

[...]

 DATASET   32 : the unit cell is not primitive
     intxc =       0    ionmov =       0      iscf =       7    lmnmax =       6
     lnmax =       6     mgfft =      45  mpssoang =       3    mqgrid =    3001
     natom =       8  nloc_mem =       1    nspden =       1   nspinor =       1
    nsppol =       1      nsym =      24    n1xccc =    2501    ntypat =       2
    occopt =       1   xclevel =       2
-    mband =          36        mffmem =           1         mkmem =           8
       mpw =        4913          nfft =       91125          nkpt =        1496
  Rough estimation (10% accuracy) of disk space for files :

------------- Echo of variables that govern the present computation ------------
-
- outvars: echo of selected default values
-   iomode0 =  0 , fftalg0 =112 , wfoptalg0 =  0
-
- outvars: echo of global parameters not present in the input file
-  max_nthreads =    0
-
 -outvars: echo values of preprocessed input variables --------
            acell      8.6075888138E+00  8.6075888138E+00  8.6075888138E+00 Bohr
              amu      6.97230000E+01  1.40067400E+01
         berryopt11        -1
         berryopt21         4
         berryopt22         4
         berryopt31         4
         berryopt32         4
      chksymbreak           0
             ecut      2.93994603E+01 Hartree
           efield11    0.00000000E+00  0.00000000E+00  0.00000000E+00
           efield21    1.00000000E-04  1.00000000E-04  1.00000000E-04
           efield22    2.00000000E-04  2.00000000E-04  2.00000000E-04
           efield31   -1.00000000E-04 -1.00000000E-04 -1.00000000E-04
           efield32   -2.00000000E-04 -2.00000000E-04 -2.00000000E-04
-          fftalg         112
           getwfk11         0
           getwfk21        11
           getwfk22        21
           getwfk31        11
           getwfk32        31
              ixc          11
           jdtset       11   21   22   31   32
              kpt11   -3.12500000E-02 -6.25000000E-02  0.00000000E+00
                      -3.12500000E-02 -3.12500000E-02  3.12500000E-02
                      -3.12500000E-02 -1.25000000E-01  0.00000000E+00
                      -6.25000000E-02 -9.37500000E-02  0.00000000E+00
                      -3.12500000E-02 -9.37500000E-02  3.12500000E-02
                      -6.25000000E-02 -6.25000000E-02  3.12500000E-02
                      -3.12500000E-02 -1.87500000E-01  0.00000000E+00
                      -6.25000000E-02 -1.56250000E-01  0.00000000E+00
                      -3.12500000E-02 -1.56250000E-01  3.12500000E-02
                      -9.37500000E-02 -1.25000000E-01  0.00000000E+00
                      -6.25000000E-02 -1.25000000E-01  3.12500000E-02
                      -9.37500000E-02 -9.37500000E-02  3.12500000E-02
                      -6.25000000E-02 -9.37500000E-02  6.25000000E-02
                      -3.12500000E-02 -2.50000000E-01  0.00000000E+00
                      -6.25000000E-02 -2.18750000E-01  0.00000000E+00
                      -3.12500000E-02 -2.18750000E-01  3.12500000E-02
                      -9.37500000E-02 -1.87500000E-01  0.00000000E+00
                      -6.25000000E-02 -1.87500000E-01  3.12500000E-02
                      -1.25000000E-01 -1.56250000E-01  0.00000000E+00
                      -9.37500000E-02 -1.56250000E-01  3.12500000E-02
                      -6.25000000E-02 -1.56250000E-01  6.25000000E-02
                      -1.25000000E-01 -1.25000000E-01  3.12500000E-02
                      -9.37500000E-02 -1.25000000E-01  6.25000000E-02
                      -9.37500000E-02 -9.37500000E-02  9.37500000E-02
                      -3.12500000E-02 -3.12500000E-01  0.00000000E+00
                      -6.25000000E-02 -2.81250000E-01  0.00000000E+00
                      -3.12500000E-02 -2.81250000E-01  3.12500000E-02
                      -9.37500000E-02 -2.50000000E-01  0.00000000E+00
                      -6.25000000E-02 -2.50000000E-01  3.12500000E-02
                      -1.25000000E-01 -2.18750000E-01  0.00000000E+00
                      -9.37500000E-02 -2.18750000E-01  3.12500000E-02
                      -6.25000000E-02 -2.18750000E-01  6.25000000E-02
                      -1.56250000E-01 -1.87500000E-01  0.00000000E+00
                      -1.25000000E-01 -1.87500000E-01  3.12500000E-02
                      -9.37500000E-02 -1.87500000E-01  6.25000000E-02
                      -1.56250000E-01 -1.56250000E-01  3.12500000E-02
                      -1.25000000E-01 -1.56250000E-01  6.25000000E-02
                      -9.37500000E-02 -1.56250000E-01  9.37500000E-02
                      -1.25000000E-01 -1.25000000E-01  9.37500000E-02
                      -3.12500000E-02 -3.75000000E-01  0.00000000E+00
                      -6.25000000E-02 -3.43750000E-01  0.00000000E+00
                      -3.12500000E-02 -3.43750000E-01  3.12500000E-02
                      -9.37500000E-02 -3.12500000E-01  0.00000000E+00
                      -6.25000000E-02 -3.12500000E-01  3.12500000E-02
                      -1.25000000E-01 -2.81250000E-01  0.00000000E+00
                      -9.37500000E-02 -2.81250000E-01  3.12500000E-02
                      -6.25000000E-02 -2.81250000E-01  6.25000000E-02
                      -1.56250000E-01 -2.50000000E-01  0.00000000E+00
                      -1.25000000E-01 -2.50000000E-01  3.12500000E-02
                      -9.37500000E-02 -2.50000000E-01  6.25000000E-02
              kpt21   -3.12500000E-02 -6.25000000E-02  0.00000000E+00
                      -3.12500000E-02 -3.12500000E-02  3.12500000E-02
                      -3.12500000E-02 -1.25000000E-01  0.00000000E+00
                      -6.25000000E-02 -9.37500000E-02  0.00000000E+00
                      -3.12500000E-02 -9.37500000E-02  3.12500000E-02
                      -6.25000000E-02 -6.25000000E-02  3.12500000E-02
                      -3.12500000E-02 -6.25000000E-02  6.25000000E-02
                      -3.12500000E-02 -3.12500000E-02  9.37500000E-02
                      -3.12500000E-02 -1.87500000E-01  0.00000000E+00
                      -6.25000000E-02 -1.56250000E-01  0.00000000E+00
                      -3.12500000E-02 -1.56250000E-01  3.12500000E-02
                      -9.37500000E-02 -1.25000000E-01  0.00000000E+00
                      -6.25000000E-02 -1.25000000E-01  3.12500000E-02
                      -3.12500000E-02 -1.25000000E-01  6.25000000E-02
                      -9.37500000E-02 -9.37500000E-02  3.12500000E-02
                      -6.25000000E-02 -9.37500000E-02  6.25000000E-02
                      -3.12500000E-02 -9.37500000E-02  9.37500000E-02
                      -6.25000000E-02 -6.25000000E-02  9.37500000E-02
                      -3.12500000E-02 -6.25000000E-02  1.25000000E-01
                      -3.12500000E-02 -3.12500000E-02  1.56250000E-01
                      -3.12500000E-02 -2.50000000E-01  0.00000000E+00
                      -6.25000000E-02 -2.18750000E-01  0.00000000E+00
                      -3.12500000E-02 -2.18750000E-01  3.12500000E-02
                      -9.37500000E-02 -1.87500000E-01  0.00000000E+00
                      -6.25000000E-02 -1.87500000E-01  3.12500000E-02
                      -3.12500000E-02 -1.87500000E-01  6.25000000E-02
                      -1.25000000E-01 -1.56250000E-01  0.00000000E+00
                      -9.37500000E-02 -1.56250000E-01  3.12500000E-02
                      -6.25000000E-02 -1.56250000E-01  6.25000000E-02
                      -3.12500000E-02 -1.56250000E-01  9.37500000E-02
                      -1.25000000E-01 -1.25000000E-01  3.12500000E-02
                      -9.37500000E-02 -1.25000000E-01  6.25000000E-02
                      -6.25000000E-02 -1.25000000E-01  9.37500000E-02
                      -3.12500000E-02 -1.25000000E-01  1.25000000E-01
                      -9.37500000E-02 -9.37500000E-02  9.37500000E-02
                      -6.25000000E-02 -9.37500000E-02  1.25000000E-01
                      -3.12500000E-02 -9.37500000E-02  1.56250000E-01
                      -6.25000000E-02 -6.25000000E-02  1.56250000E-01
                      -3.12500000E-02 -6.25000000E-02  1.87500000E-01
                      -3.12500000E-02 -3.12500000E-02  2.18750000E-01
                      -3.12500000E-02 -3.12500000E-01  0.00000000E+00
                      -6.25000000E-02 -2.81250000E-01  0.00000000E+00
                      -3.12500000E-02 -2.81250000E-01  3.12500000E-02
                      -9.37500000E-02 -2.50000000E-01  0.00000000E+00
                      -6.25000000E-02 -2.50000000E-01  3.12500000E-02
                      -3.12500000E-02 -2.50000000E-01  6.25000000E-02
                      -1.25000000E-01 -2.18750000E-01  0.00000000E+00
                      -9.37500000E-02 -2.18750000E-01  3.12500000E-02
                      -6.25000000E-02 -2.18750000E-01  6.25000000E-02
                      -3.12500000E-02 -2.18750000E-01  9.37500000E-02
              kpt22   -3.12500000E-02 -6.25000000E-02  0.00000000E+00
                      -3.12500000E-02 -3.12500000E-02  3.12500000E-02
                      -3.12500000E-02 -1.25000000E-01  0.00000000E+00
                      -6.25000000E-02 -9.37500000E-02  0.00000000E+00
                      -3.12500000E-02 -9.37500000E-02  3.12500000E-02
                      -6.25000000E-02 -6.25000000E-02  3.12500000E-02
                      -3.12500000E-02 -6.25000000E-02  6.25000000E-02
                      -3.12500000E-02 -3.12500000E-02  9.37500000E-02
                      -3.12500000E-02 -1.87500000E-01  0.00000000E+00
                      -6.25000000E-02 -1.56250000E-01  0.00000000E+00
                      -3.12500000E-02 -1.56250000E-01  3.12500000E-02
                      -9.37500000E-02 -1.25000000E-01  0.00000000E+00
                      -6.25000000E-02 -1.25000000E-01  3.12500000E-02
[...]
           symrel31    1  0  0   0  1  0   0  0  1       1  0  0   0  1  0   0  0  1
                       1  0  0   0  1  0   0  0  1       1  0  0   0  1  0   0  0  1
                       0  1  0   1  0  0   0  0  1       0  1  0   1  0  0   0  0  1
                       0  1  0   1  0  0   0  0  1       0  1  0   1  0  0   0  0  1
                       0  0  1   1  0  0   0  1  0       0  0  1   1  0  0   0  1  0
                       0  0  1   1  0  0   0  1  0       0  0  1   1  0  0   0  1  0
                       1  0  0   0  0  1   0  1  0       1  0  0   0  0  1   0  1  0
                       1  0  0   0  0  1   0  1  0       1  0  0   0  0  1   0  1  0
                       0  1  0   0  0  1   1  0  0       0  1  0   0  0  1   1  0  0
                       0  1  0   0  0  1   1  0  0       0  1  0   0  0  1   1  0  0
                       0  0  1   0  1  0   1  0  0       0  0  1   0  1  0   1  0  0
                       0  0  1   0  1  0   1  0  0       0  0  1   0  1  0   1  0  0
           symrel32    1  0  0   0  1  0   0  0  1       1  0  0   0  1  0   0  0  1
                       1  0  0   0  1  0   0  0  1       1  0  0   0  1  0   0  0  1
                       0  1  0   1  0  0   0  0  1       0  1  0   1  0  0   0  0  1
                       0  1  0   1  0  0   0  0  1       0  1  0   1  0  0   0  0  1
                       0  0  1   1  0  0   0  1  0       0  0  1   1  0  0   0  1  0
                       0  0  1   1  0  0   0  1  0       0  0  1   1  0  0   0  1  0
                       1  0  0   0  0  1   0  1  0       1  0  0   0  0  1   0  1  0
                       1  0  0   0  0  1   0  1  0       1  0  0   0  0  1   0  1  0
                       0  1  0   0  0  1   1  0  0       0  1  0   0  0  1   1  0  0
                       0  1  0   0  0  1   1  0  0       0  1  0   0  0  1   1  0  0
                       0  0  1   0  1  0   1  0  0       0  0  1   0  1  0   1  0  0
                       0  0  1   0  1  0   1  0  0       0  0  1   0  1  0   1  0  0
            tnons11    0.0000000  0.0000000  0.0000000     0.0000000  0.5000000  0.5000000
                       0.5000000  0.0000000  0.5000000     0.5000000  0.5000000  0.0000000
                       0.0000000  0.0000000  0.0000000     0.0000000  0.5000000  0.5000000
                       0.5000000  0.0000000  0.5000000     0.5000000  0.5000000  0.0000000
                       0.0000000  0.0000000  0.0000000     0.0000000  0.5000000  0.5000000
                       0.5000000  0.0000000  0.5000000     0.5000000  0.5000000  0.0000000
                       0.0000000  0.0000000  0.0000000     0.0000000  0.5000000  0.5000000
                       0.5000000  0.0000000  0.5000000     0.5000000  0.5000000  0.0000000
                       0.0000000  0.0000000  0.0000000     0.0000000  0.5000000  0.5000000
                       0.5000000  0.0000000  0.5000000     0.5000000  0.5000000  0.0000000
                       0.0000000  0.0000000  0.0000000     0.0000000  0.5000000  0.5000000
                       0.5000000  0.0000000  0.5000000     0.5000000  0.5000000  0.0000000
                       0.0000000  0.0000000  0.0000000     0.0000000  0.5000000  0.5000000
                       0.5000000  0.0000000  0.5000000     0.5000000  0.5000000  0.0000000
                       0.0000000  0.0000000  0.0000000     0.0000000  0.5000000  0.5000000
                       0.5000000  0.0000000  0.5000000     0.5000000  0.5000000  0.0000000
                       0.0000000  0.0000000  0.0000000     0.0000000  0.5000000  0.5000000
                       0.5000000  0.0000000  0.5000000     0.5000000  0.5000000  0.0000000
                       0.0000000  0.0000000  0.0000000     0.0000000  0.5000000  0.5000000
                       0.5000000  0.0000000  0.5000000     0.5000000  0.5000000  0.0000000
                       0.0000000  0.0000000  0.0000000     0.0000000  0.5000000  0.5000000
                       0.5000000  0.0000000  0.5000000     0.5000000  0.5000000  0.0000000
                       0.0000000  0.0000000  0.0000000     0.0000000  0.5000000  0.5000000
                       0.5000000  0.0000000  0.5000000     0.5000000  0.5000000  0.0000000
                       0.0000000  0.0000000  0.0000000     0.0000000  0.5000000  0.5000000
                       0.5000000  0.0000000  0.5000000     0.5000000  0.5000000  0.0000000
                       0.0000000  0.0000000  0.0000000     0.0000000  0.5000000  0.5000000
                       0.5000000  0.0000000  0.5000000     0.5000000  0.5000000  0.0000000
                       0.0000000  0.0000000  0.0000000     0.0000000  0.5000000  0.5000000
                       0.5000000  0.0000000  0.5000000     0.5000000  0.5000000  0.0000000
                       0.0000000  0.0000000  0.0000000     0.0000000  0.5000000  0.5000000
                       0.5000000  0.0000000  0.5000000     0.5000000  0.5000000  0.0000000
                       0.0000000  0.0000000  0.0000000     0.0000000  0.5000000  0.5000000
                       0.5000000  0.0000000  0.5000000     0.5000000  0.5000000  0.0000000
                       0.0000000  0.0000000  0.0000000     0.0000000  0.5000000  0.5000000
                       0.5000000  0.0000000  0.5000000     0.5000000  0.5000000  0.0000000
                       0.0000000  0.0000000  0.0000000     0.0000000  0.5000000  0.5000000
                       0.5000000  0.0000000  0.5000000     0.5000000  0.5000000  0.0000000
                       0.0000000  0.0000000  0.0000000     0.0000000  0.5000000  0.5000000
                       0.5000000  0.0000000  0.5000000     0.5000000  0.5000000  0.0000000
                       0.0000000  0.0000000  0.0000000     0.0000000  0.5000000  0.5000000
                       0.5000000  0.0000000  0.5000000     0.5000000  0.5000000  0.0000000
                       0.0000000  0.0000000  0.0000000     0.0000000  0.5000000  0.5000000
                       0.5000000  0.0000000  0.5000000     0.5000000  0.5000000  0.0000000
                       0.0000000  0.0000000  0.0000000     0.0000000  0.5000000  0.5000000
                       0.5000000  0.0000000  0.5000000     0.5000000  0.5000000  0.0000000
                       0.0000000  0.0000000  0.0000000     0.0000000  0.5000000  0.5000000
                       0.5000000  0.0000000  0.5000000     0.5000000  0.5000000  0.0000000
            tnons21    0.0000000  0.0000000  0.0000000     0.0000000  0.5000000  0.5000000
                       0.5000000  0.0000000  0.5000000     0.5000000  0.5000000  0.0000000
                       0.0000000  0.0000000  0.0000000     0.0000000  0.5000000  0.5000000
                       0.5000000  0.0000000  0.5000000     0.5000000  0.5000000  0.0000000
                       0.0000000  0.0000000  0.0000000     0.0000000  0.5000000  0.5000000
                       0.5000000  0.0000000  0.5000000     0.5000000  0.5000000  0.0000000
                       0.0000000  0.0000000  0.0000000     0.0000000  0.5000000  0.5000000
                       0.5000000  0.0000000  0.5000000     0.5000000  0.5000000  0.0000000
                       0.0000000  0.0000000  0.0000000     0.0000000  0.5000000  0.5000000
                       0.5000000  0.0000000  0.5000000     0.5000000  0.5000000  0.0000000
                       0.0000000  0.0000000  0.0000000     0.0000000  0.5000000  0.5000000
                       0.5000000  0.0000000  0.5000000     0.5000000  0.5000000  0.0000000
            tnons22    0.0000000  0.0000000  0.0000000     0.0000000  0.5000000  0.5000000
                       0.5000000  0.0000000  0.5000000     0.5000000  0.5000000  0.0000000
                       0.0000000  0.0000000  0.0000000     0.0000000  0.5000000  0.5000000
                       0.5000000  0.0000000  0.5000000     0.5000000  0.5000000  0.0000000
                       0.0000000  0.0000000  0.0000000     0.0000000  0.5000000  0.5000000
                       0.5000000  0.0000000  0.5000000     0.5000000  0.5000000  0.0000000
                       0.0000000  0.0000000  0.0000000     0.0000000  0.5000000  0.5000000
                       0.5000000  0.0000000  0.5000000     0.5000000  0.5000000  0.0000000
                       0.0000000  0.0000000  0.0000000     0.0000000  0.5000000  0.5000000
                       0.5000000  0.0000000  0.5000000     0.5000000  0.5000000  0.0000000
                       0.0000000  0.0000000  0.0000000     0.0000000  0.5000000  0.5000000
                       0.5000000  0.0000000  0.5000000     0.5000000  0.5000000  0.0000000
            tnons31    0.0000000  0.0000000  0.0000000     0.0000000  0.5000000  0.5000000
                       0.5000000  0.0000000  0.5000000     0.5000000  0.5000000  0.0000000
                       0.0000000  0.0000000  0.0000000     0.0000000  0.5000000  0.5000000
                       0.5000000  0.0000000  0.5000000     0.5000000  0.5000000  0.0000000
                       0.0000000  0.0000000  0.0000000     0.0000000  0.5000000  0.5000000
                       0.5000000  0.0000000  0.5000000     0.5000000  0.5000000  0.0000000
                       0.0000000  0.0000000  0.0000000     0.0000000  0.5000000  0.5000000
                       0.5000000  0.0000000  0.5000000     0.5000000  0.5000000  0.0000000
                       0.0000000  0.0000000  0.0000000     0.0000000  0.5000000  0.5000000
                       0.5000000  0.0000000  0.5000000     0.5000000  0.5000000  0.0000000
                       0.0000000  0.0000000  0.0000000     0.0000000  0.5000000  0.5000000
                       0.5000000  0.0000000  0.5000000     0.5000000  0.5000000  0.0000000
            tnons32    0.0000000  0.0000000  0.0000000     0.0000000  0.5000000  0.5000000
                       0.5000000  0.0000000  0.5000000     0.5000000  0.5000000  0.0000000
                       0.0000000  0.0000000  0.0000000     0.0000000  0.5000000  0.5000000
                       0.5000000  0.0000000  0.5000000     0.5000000  0.5000000  0.0000000
                       0.0000000  0.0000000  0.0000000     0.0000000  0.5000000  0.5000000
                       0.5000000  0.0000000  0.5000000     0.5000000  0.5000000  0.0000000
                       0.0000000  0.0000000  0.0000000     0.0000000  0.5000000  0.5000000
                       0.5000000  0.0000000  0.5000000     0.5000000  0.5000000  0.0000000
                       0.0000000  0.0000000  0.0000000     0.0000000  0.5000000  0.5000000
                       0.5000000  0.0000000  0.5000000     0.5000000  0.5000000  0.0000000
                       0.0000000  0.0000000  0.0000000     0.0000000  0.5000000  0.5000000
                       0.5000000  0.0000000  0.5000000     0.5000000  0.5000000  0.0000000
           toldfe      1.00000000E-12 Hartree
            typat      1  1  1  1  2  2  2  2
              wtk11      0.00146    0.00049    0.00146    0.00146    0.00146    0.00146
                         0.00146    0.00146    0.00146    0.00146    0.00293    0.00146
                         0.00146    0.00146    0.00146    0.00146    0.00146    0.00293
                         0.00146    0.00293    0.00146    0.00146    0.00293    0.00049
                         0.00146    0.00146    0.00146    0.00146    0.00293    0.00146
                         0.00293    0.00146    0.00146    0.00293    0.00293    0.00146
                         0.00293    0.00146    0.00146    0.00146    0.00146    0.00146
                         0.00146    0.00293    0.00146    0.00293    0.00146    0.00146
                         0.00293    0.00293
              wtk21      0.00073    0.00037    0.00073    0.00073    0.00073    0.00037
                         0.00073    0.00037    0.00073    0.00073    0.00073    0.00073
                         0.00073    0.00073    0.00037    0.00073    0.00073    0.00037
                         0.00073    0.00037    0.00073    0.00073    0.00073    0.00073
                         0.00073    0.00073    0.00073    0.00073    0.00073    0.00073
                         0.00037    0.00073    0.00073    0.00073    0.00037    0.00073
                         0.00073    0.00037    0.00073    0.00037    0.00073    0.00073
                         0.00073    0.00073    0.00073    0.00073    0.00073    0.00073
                         0.00073    0.00073
              wtk22      0.00073    0.00037    0.00073    0.00073    0.00073    0.00037
                         0.00073    0.00037    0.00073    0.00073    0.00073    0.00073
                         0.00073    0.00073    0.00037    0.00073    0.00073    0.00037
                         0.00073    0.00037    0.00073    0.00073    0.00073    0.00073
                         0.00073    0.00073    0.00073    0.00073    0.00073    0.00073
                         0.00037    0.00073    0.00073    0.00073    0.00037    0.00073
                         0.00073    0.00037    0.00073    0.00037    0.00073    0.00073
                         0.00073    0.00073    0.00073    0.00073    0.00073    0.00073
                         0.00073    0.00073
              wtk31      0.00073    0.00037    0.00073    0.00073    0.00073    0.00037
                         0.00073    0.00037    0.00073    0.00073    0.00073    0.00073
                         0.00073    0.00073    0.00037    0.00073    0.00073    0.00037
                         0.00073    0.00037    0.00073    0.00073    0.00073    0.00073
                         0.00073    0.00073    0.00073    0.00073    0.00073    0.00073
                         0.00037    0.00073    0.00073    0.00073    0.00037    0.00073
                         0.00073    0.00037    0.00073    0.00037    0.00073    0.00073
                         0.00073    0.00073    0.00073    0.00073    0.00073    0.00073
                         0.00073    0.00073
              wtk32      0.00073    0.00037    0.00073    0.00073    0.00073    0.00037
                         0.00073    0.00037    0.00073    0.00073    0.00073    0.00073
                         0.00073    0.00073    0.00037    0.00073    0.00073    0.00037
                         0.00073    0.00037    0.00073    0.00073    0.00073    0.00073
                         0.00073    0.00073    0.00073    0.00073    0.00073    0.00073
                         0.00037    0.00073    0.00073    0.00073    0.00037    0.00073
                         0.00073    0.00037    0.00073    0.00037    0.00073    0.00073
                         0.00073    0.00073    0.00073    0.00073    0.00073    0.00073
                         0.00073    0.00073
                       outvars : Printing only first  50 k-points.
           xangst      0.0000000000E+00  0.0000000000E+00  0.0000000000E+00
                       0.0000000000E+00  2.2774699106E+00  2.2774699106E+00
                       2.2774699106E+00  0.0000000000E+00  2.2774699106E+00
                       2.2774699106E+00  2.2774699106E+00  0.0000000000E+00
                       1.1387349553E+00  1.1387349553E+00  3.4162048659E+00
                       1.1387349553E+00  3.4162048659E+00  1.1387349553E+00
                       3.4162048659E+00  1.1387349553E+00  1.1387349553E+00
                       3.4162048659E+00  3.4162048659E+00  3.4162048659E+00
            xcart      0.0000000000E+00  0.0000000000E+00  0.0000000000E+00
                       0.0000000000E+00  4.3037944069E+00  4.3037944069E+00
                       4.3037944069E+00  0.0000000000E+00  4.3037944069E+00
                       4.3037944069E+00  4.3037944069E+00  0.0000000000E+00
                       2.1518972034E+00  2.1518972034E+00  6.4556916104E+00
                       2.1518972034E+00  6.4556916104E+00  2.1518972034E+00
                       6.4556916104E+00  2.1518972034E+00  2.1518972034E+00
                       6.4556916104E+00  6.4556916104E+00  6.4556916104E+00
             xred      0.0000000000E+00  0.0000000000E+00  0.0000000000E+00
                       0.0000000000E+00  5.0000000000E-01  5.0000000000E-01
                       5.0000000000E-01  0.0000000000E+00  5.0000000000E-01
                       5.0000000000E-01  5.0000000000E-01  0.0000000000E+00
                       2.5000000000E-01  2.5000000000E-01  7.5000000000E-01
                       2.5000000000E-01  7.5000000000E-01  2.5000000000E-01
                       7.5000000000E-01  2.5000000000E-01  2.5000000000E-01
                       7.5000000000E-01  7.5000000000E-01  7.5000000000E-01
            znucl       31.00000    7.00000

- Timing analysis has been suppressed with timopt=0

 Suggested references for the acknowledgment of ABINIT usage.

 Calculation completed.
.Delivered   0 WARNINGs and   8 COMMENTs to log file.