     Program PWSCF v.6.4.1 starts on 15Mar2021 at  1:44:36

     R & G space division:  proc/nbgrp/npool/nimage =      40
     Reading input from Al_pwscf.in

     Current dimensions of program PWSCF are:
     Max number of different atomic species (ntypx) = 10
     Max number of k-points (npk) =  40000
     Max angular momentum in pseudopotentials (lmaxx) =  3

     IMPORTANT: XC functional enforced from input :
     Exchange-correlation= XC_LDA_XC_KSDT
                           ( 259   0   0   0   0   0   0)
     Any further DFT definition will be discarded
     Please, verify this is what you really want

     gamma-point specific algorithms are used

     Subspace diagonalization in iterative solution of the eigenvalue problem:
     a serial algorithm will be used

     bravais-lattice index     =            0
     lattice parameter (alat)  =      23.9734  a.u.
     unit-cell volume          =   13778.0861 (a.u.)^3
     number of atoms/cell      =          108
     number of atomic types    =            1
     number of electrons       =       324.00
     number of Kohn-Sham states=         4500
     kinetic-energy cutoff     =     100.0000  Ry
     charge density cutoff     =     400.0000  Ry
     convergence threshold     =      1.0E-06
     mixing beta               =       0.7000
     number of iterations used =            8  plain     mixing
     Exchange-correlation= XC_LDA_XC_KSDT
                           ( 259   0   0   0   0   0   0)

     celldm(1)=  23.973400  celldm(2)=   0.000000  celldm(3)=   0.000000
     celldm(4)=   0.000000  celldm(5)=   0.000000  celldm(6)=   0.000000

     crystal axes: (cart. coord. in units of alat)
               a(1) = (   1.000000   0.000000   0.000000 )
               a(2) = (   0.000000   1.000000   0.000000 )
               a(3) = (   0.000000   0.000000   1.000000 )

     reciprocal axes: (cart. coord. in units 2 pi/alat)
               b(1) = (  1.000000  0.000000  0.000000 )
               b(2) = (  0.000000  1.000000  0.000000 )
               b(3) = (  0.000000  0.000000  1.000000 )

     PseudoPot. # 1 for Al read from file:
     /home/mmm0873/pseudo/Al.upf
     MD5 check sum: ba9f5f198b9667a0d06c5b1d7daf412e
     Pseudo is Norm-conserving + core correction, Zval =  3.0
     Generated using ONCVPSP code by D. R. Hamann
     Using radial grid of 1854 points,  6 beta functions with:
                l(1) =   0
                l(2) =   0
                l(3) =   1
                l(4) =   1
                l(5) =   2
                l(6) =   2

     atomic species   valence    mass     pseudopotential
        Al             3.00    26.98154     Al( 1.00)

     No symmetry found

                                    s                        frac. trans.

      isym =  1     identity

 cryst.   s( 1) = (     1          0          0      )
                  (     0          1          0      )
                  (     0          0          1      )

 cart.    s( 1) = (  1.0000000  0.0000000  0.0000000 )
                  (  0.0000000  1.0000000  0.0000000 )
                  (  0.0000000  0.0000000  1.0000000 )

   Cartesian axes

     site n.     atom                  positions (alat units)
         1           Al  tau(   1) = (   0.8757857   0.9655974   0.0542662  )
         2           Al  tau(   2) = (   0.9534220   0.9310747   0.2262003  )
         3           Al  tau(   3) = (   0.1507714   0.2592874   0.0821759  )
         4           Al  tau(   4) = (   0.2391168   0.0549427   0.9702301  )
         5           Al  tau(   5) = (   0.2864811   0.7958008   0.0132565  )
         6           Al  tau(   6) = (   0.4554113   0.6970727   0.0636180  )
         7           Al  tau(   7) = (   0.3754415   0.9552290   0.0161215  )
         8           Al  tau(   8) = (   0.5680668   0.1041695   0.0982897  )
         9           Al  tau(   9) = (   0.6708090   0.1815284   0.9766772  )
        10           Al  tau(  10) = (   0.6540173   0.2146390   0.1595850  )
        11           Al  tau(  11) = (   0.5801953   0.0550190   0.3654192  )
        12           Al  tau(  12) = (   0.9207307   0.2369506   0.0045471  )
        13           Al  tau(  13) = (   0.9908914   0.4406676   0.7065747  )
        14           Al  tau(  14) = (   0.0976980   0.3931406   0.1340734  )
        15           Al  tau(  15) = (   0.1736459   0.5507929   0.1334887  )
        16           Al  tau(  16) = (   0.1885665   0.6576056   0.0736305  )
        17           Al  tau(  17) = (   0.4547272   0.4912360   0.9767241  )
        18           Al  tau(  18) = (   0.2886204   0.6157116   0.2377176  )
        19           Al  tau(  19) = (   0.7291617   0.4199442   0.0637047  )
        20           Al  tau(  20) = (   0.4617018   0.2556181   0.1648751  )
        21           Al  tau(  21) = (   0.5282738   0.3627809   0.8103241  )
        22           Al  tau(  22) = (   0.5409017   0.3887000   0.3044652  )
        23           Al  tau(  23) = (   0.9502174   0.3447287   0.1778138  )
        24           Al  tau(  24) = (   0.8114467   0.5322488   0.8593573  )
        25           Al  tau(  25) = (   0.0619526   0.8691536   0.2041427  )
        26           Al  tau(  26) = (   0.9810746   0.6025149   0.3419689  )
        27           Al  tau(  27) = (   0.1482778   0.5938382   0.3025064  )
        28           Al  tau(  28) = (   0.9950628   0.9126205   0.9432209  )
        29           Al  tau(  29) = (   0.0146525   0.7055570   0.9395651  )
        30           Al  tau(  30) = (   0.4709144   0.7495006   0.2913986  )
        31           Al  tau(  31) = (   0.5591335   0.6434863   0.0496524  )
        32           Al  tau(  32) = (   0.2868523   0.4696977   0.2740192  )
        33           Al  tau(  33) = (   0.6679190   0.8205817   0.8326502  )
        34           Al  tau(  34) = (   0.6324691   0.7110868   0.9035697  )
        35           Al  tau(  35) = (   0.7603593   0.7678345   0.9541445  )
        36           Al  tau(  36) = (   0.9058688   0.6484979   0.1697957  )
        37           Al  tau(  37) = (   0.2326756   0.8908057   0.4072906  )
        38           Al  tau(  38) = (   0.3797188   0.1485350   0.7822246  )
        39           Al  tau(  39) = (   0.0753077   0.1331371   0.5668585  )
        40           Al  tau(  40) = (   0.2645072   0.2543680   0.1300150  )
        41           Al  tau(  41) = (   0.5672480   0.0811940   0.2556621  )
        42           Al  tau(  42) = (   0.4315746   0.0638407   0.5055694  )
        43           Al  tau(  43) = (   0.2641828   0.9956161   0.4450930  )
        44           Al  tau(  44) = (   0.2741414   0.1098641   0.2791441  )
        45           Al  tau(  45) = (   0.7779066   0.9171043   0.2382828  )
        46           Al  tau(  46) = (   0.7356059   0.3843628   0.3474232  )
        47           Al  tau(  47) = (   0.7383032   0.8276945   0.4567343  )
        48           Al  tau(  48) = (   0.8921886   0.9958911   0.3647362  )
        49           Al  tau(  49) = (   0.0482572   0.2221376   0.1645181  )
        50           Al  tau(  50) = (   0.1248467   0.7067632   0.3972983  )
        51           Al  tau(  51) = (   0.2610482   0.1732288   0.3741733  )
        52           Al  tau(  52) = (   0.2211886   0.5395018   0.4940818  )
        53           Al  tau(  53) = (   0.3994649   0.4297658   0.3793025  )
        54           Al  tau(  54) = (   0.1223512   0.4716128   0.4392021  )
        55           Al  tau(  55) = (   0.8184529   0.4415615   0.7147670  )
        56           Al  tau(  56) = (   0.3305084   0.3313828   0.6964142  )
        57           Al  tau(  57) = (   0.5493315   0.3238484   0.5041110  )
        58           Al  tau(  58) = (   0.6809299   0.4770442   0.5112329  )
        59           Al  tau(  59) = (   0.9026149   0.4337433   0.4696757  )
        60           Al  tau(  60) = (   0.9909246   0.2656080   0.3742636  )
[...]
        94           Al  tau(  94) = (   0.5718764   0.8282974   0.6103425  )
        95           Al  tau(  95) = (   0.8443818   0.0318072   0.8452243  )
        96           Al  tau(  96) = (   0.6233366   0.7050721   0.7375982  )
        97           Al  tau(  97) = (   0.1234834   0.4642306   0.6893897  )
        98           Al  tau(  98) = (   0.1243336   0.8538739   0.7462472  )
        99           Al  tau(  99) = (   0.9958298   0.6067533   0.6214887  )
       100           Al  tau( 100) = (   0.1887052   0.6646486   0.6087999  )
       101           Al  tau( 101) = (   0.3232433   0.6374030   0.9811059  )
       102           Al  tau( 102) = (   0.5116819   0.9436890   0.8614382  )
       103           Al  tau( 103) = (   0.3702340   0.7826546   0.7719716  )
       104           Al  tau( 104) = (   0.4451005   0.9056162   0.5966683  )
       105           Al  tau( 105) = (   0.8963851   0.7490397   0.6276416  )
       106           Al  tau( 106) = (   0.8743247   0.8969553   0.7043414  )
       107           Al  tau( 107) = (   0.9181058   0.4780669   0.0075512  )
       108           Al  tau( 108) = (   0.9545681   0.2100487   0.6112119  )

   Crystallographic axes

     site n.     atom                  positions (cryst. coord.)
         1           Al  tau(   1) = (  0.8757857  0.9655974  0.0542662  )
         2           Al  tau(   2) = (  0.9534220  0.9310747  0.2262003  )
         3           Al  tau(   3) = (  0.1507714  0.2592874  0.0821759  )
         4           Al  tau(   4) = (  0.2391168  0.0549427  0.9702301  )
         5           Al  tau(   5) = (  0.2864811  0.7958008  0.0132565  )
         6           Al  tau(   6) = (  0.4554113  0.6970727  0.0636180  )
         7           Al  tau(   7) = (  0.3754415  0.9552290  0.0161215  )
         8           Al  tau(   8) = (  0.5680668  0.1041695  0.0982897  )
         9           Al  tau(   9) = (  0.6708090  0.1815284  0.9766772  )
        10           Al  tau(  10) = (  0.6540173  0.2146390  0.1595850  )
        11           Al  tau(  11) = (  0.5801953  0.0550190  0.3654192  )
        12           Al  tau(  12) = (  0.9207307  0.2369506  0.0045471  )
        13           Al  tau(  13) = (  0.9908914  0.4406676  0.7065747  )
        14           Al  tau(  14) = (  0.0976980  0.3931406  0.1340734  )
        15           Al  tau(  15) = (  0.1736459  0.5507929  0.1334887  )
        16           Al  tau(  16) = (  0.1885665  0.6576056  0.0736305  )
        17           Al  tau(  17) = (  0.4547272  0.4912360  0.9767241  )
        18           Al  tau(  18) = (  0.2886204  0.6157116  0.2377176  )
        19           Al  tau(  19) = (  0.7291617  0.4199442  0.0637047  )
        20           Al  tau(  20) = (  0.4617018  0.2556181  0.1648751  )
        21           Al  tau(  21) = (  0.5282738  0.3627809  0.8103241  )
        22           Al  tau(  22) = (  0.5409017  0.3887000  0.3044652  )
        23           Al  tau(  23) = (  0.9502174  0.3447287  0.1778138  )
        24           Al  tau(  24) = (  0.8114467  0.5322488  0.8593573  )
        25           Al  tau(  25) = (  0.0619526  0.8691536  0.2041427  )
        26           Al  tau(  26) = (  0.9810746  0.6025149  0.3419689  )
        27           Al  tau(  27) = (  0.1482778  0.5938382  0.3025064  )
[...]
     atom   44 type  1   force =    -0.01097159    0.01687735    0.04208617
     atom   45 type  1   force =     0.02221713    0.00685064    0.00505795
     atom   46 type  1   force =     0.00047616    0.02297816   -0.00202264
     atom   47 type  1   force =     0.00065034   -0.01212709    0.00991507
     atom   48 type  1   force =     0.00849274   -0.01258759   -0.01560057
     atom   49 type  1   force =     0.01757619    0.03584986   -0.02372855
     atom   50 type  1   force =     0.00777087   -0.01845752   -0.00224858
     atom   51 type  1   force =     0.00073520   -0.04617372   -0.04418553
     atom   52 type  1   force =    -0.03902214   -0.00832169   -0.01335265
     atom   53 type  1   force =     0.00332491    0.00408698   -0.02245281
     atom   54 type  1   force =     0.02904066    0.03293333    0.01036303
     atom   55 type  1   force =     0.01955453   -0.00601476    0.00319477
     atom   56 type  1   force =    -0.02211031   -0.00809560    0.00598385
     atom   57 type  1   force =    -0.01655754    0.04713506    0.04483176
     atom   58 type  1   force =    -0.00314635   -0.00008370   -0.00542391
     atom   59 type  1   force =    -0.00102912   -0.00125040   -0.00246299
     atom   60 type  1   force =    -0.01136569   -0.00346379    0.00499241
[...]
     atom   94 type  1   force =    -0.02182110    0.00887505    0.00331133
     atom   95 type  1   force =     0.01227257   -0.00871404   -0.00150642
     atom   96 type  1   force =    -0.00175025    0.02359810    0.01932241
     atom   97 type  1   force =    -0.03097360   -0.01216715    0.01699799
     atom   98 type  1   force =    -0.00427283    0.00362700   -0.01384476
     atom   99 type  1   force =     0.00560382    0.02152547    0.00214127
     atom  100 type  1   force =    -0.01548997    0.02208379   -0.02566031
     atom  101 type  1   force =    -0.00084346    0.01732982    0.02140242
     atom  102 type  1   force =    -0.00124294    0.01369537    0.01076669
     atom  103 type  1   force =     0.01461169    0.02290392   -0.03086872
     atom  104 type  1   force =    -0.00505439   -0.00675692    0.05223545
     atom  105 type  1   force =     0.02007321   -0.00689673   -0.01854567
     atom  106 type  1   force =     0.00674484   -0.01002155   -0.00104718
     atom  107 type  1   force =    -0.00931842    0.00738683   -0.00269710
     atom  108 type  1   force =    -0.00573486    0.00617567   -0.00346476
     The Hubbard contrib.    to forces
     atom    1 type  1   force =     0.00000000    0.00000000    0.00000000
     atom    2 type  1   force =     0.00000000    0.00000000    0.00000000
     atom    3 type  1   force =     0.00000000    0.00000000    0.00000000
     atom    4 type  1   force =     0.00000000    0.00000000    0.00000000
     atom    5 type  1   force =     0.00000000    0.00000000    0.00000000
     atom    6 type  1   force =     0.00000000    0.00000000    0.00000000
     atom    7 type  1   force =     0.00000000    0.00000000    0.00000000
     atom    8 type  1   force =     0.00000000    0.00000000    0.00000000
     atom    9 type  1   force =     0.00000000    0.00000000    0.00000000
     atom   10 type  1   force =     0.00000000    0.00000000    0.00000000
     atom   11 type  1   force =     0.00000000    0.00000000    0.00000000
     atom   12 type  1   force =     0.00000000    0.00000000    0.00000000
     atom   13 type  1   force =     0.00000000    0.00000000    0.00000000
     atom   14 type  1   force =     0.00000000    0.00000000    0.00000000
     atom   15 type  1   force =     0.00000000    0.00000000    0.00000000
     atom   16 type  1   force =     0.00000000    0.00000000    0.00000000
     atom   17 type  1   force =     0.00000000    0.00000000    0.00000000
     atom   18 type  1   force =     0.00000000    0.00000000    0.00000000
     atom   19 type  1   force =     0.00000000    0.00000000    0.00000000
     atom   20 type  1   force =     0.00000000    0.00000000    0.00000000
     atom   21 type  1   force =     0.00000000    0.00000000    0.00000000
     atom   22 type  1   force =     0.00000000    0.00000000    0.00000000
     atom   23 type  1   force =     0.00000000    0.00000000    0.00000000
     atom   24 type  1   force =     0.00000000    0.00000000    0.00000000
     atom   25 type  1   force =     0.00000000    0.00000000    0.00000000
     atom   26 type  1   force =     0.00000000    0.00000000    0.00000000
     atom   27 type  1   force =     0.00000000    0.00000000    0.00000000
     atom   28 type  1   force =     0.00000000    0.00000000    0.00000000
     atom   29 type  1   force =     0.00000000    0.00000000    0.00000000
     atom   30 type  1   force =     0.00000000    0.00000000    0.00000000
     atom   31 type  1   force =     0.00000000    0.00000000    0.00000000
     atom   32 type  1   force =     0.00000000    0.00000000    0.00000000
     atom   33 type  1   force =     0.00000000    0.00000000    0.00000000
     atom   34 type  1   force =     0.00000000    0.00000000    0.00000000
     atom   35 type  1   force =     0.00000000    0.00000000    0.00000000
     atom   36 type  1   force =     0.00000000    0.00000000    0.00000000
     atom   37 type  1   force =     0.00000000    0.00000000    0.00000000
     atom   38 type  1   force =     0.00000000    0.00000000    0.00000000
     atom   39 type  1   force =     0.00000000    0.00000000    0.00000000
     atom   40 type  1   force =     0.00000000    0.00000000    0.00000000
     atom   41 type  1   force =     0.00000000    0.00000000    0.00000000
     atom   42 type  1   force =     0.00000000    0.00000000    0.00000000
     atom   43 type  1   force =     0.00000000    0.00000000    0.00000000
     atom   44 type  1   force =     0.00000000    0.00000000    0.00000000
     atom   45 type  1   force =     0.00000000    0.00000000    0.00000000
     atom   46 type  1   force =     0.00000000    0.00000000    0.00000000
     atom   47 type  1   force =     0.00000000    0.00000000    0.00000000
     atom   48 type  1   force =     0.00000000    0.00000000    0.00000000
     atom   49 type  1   force =     0.00000000    0.00000000    0.00000000
     atom   50 type  1   force =     0.00000000    0.00000000    0.00000000
     atom   51 type  1   force =     0.00000000    0.00000000    0.00000000
     atom   52 type  1   force =     0.00000000    0.00000000    0.00000000
     atom   53 type  1   force =     0.00000000    0.00000000    0.00000000
     atom   54 type  1   force =     0.00000000    0.00000000    0.00000000
     atom   55 type  1   force =     0.00000000    0.00000000    0.00000000
     atom   56 type  1   force =     0.00000000    0.00000000    0.00000000
     atom   57 type  1   force =     0.00000000    0.00000000    0.00000000
     atom   58 type  1   force =     0.00000000    0.00000000    0.00000000
     atom   59 type  1   force =     0.00000000    0.00000000    0.00000000
     atom   60 type  1   force =     0.00000000    0.00000000    0.00000000
[...]
     atom   94 type  1   force =     0.00000000    0.00000000    0.00000000
     atom   95 type  1   force =     0.00000000    0.00000000    0.00000000
     atom   96 type  1   force =     0.00000000    0.00000000    0.00000000
     atom   97 type  1   force =     0.00000000    0.00000000    0.00000000
     atom   98 type  1   force =     0.00000000    0.00000000    0.00000000
     atom   99 type  1   force =     0.00000000    0.00000000    0.00000000
     atom  100 type  1   force =     0.00000000    0.00000000    0.00000000
     atom  101 type  1   force =     0.00000000    0.00000000    0.00000000
     atom  102 type  1   force =     0.00000000    0.00000000    0.00000000
     atom  103 type  1   force =     0.00000000    0.00000000    0.00000000
     atom  104 type  1   force =     0.00000000    0.00000000    0.00000000
     atom  105 type  1   force =     0.00000000    0.00000000    0.00000000
     atom  106 type  1   force =     0.00000000    0.00000000    0.00000000
     atom  107 type  1   force =     0.00000000    0.00000000    0.00000000
     atom  108 type  1   force =     0.00000000    0.00000000    0.00000000
     The SCF correction term to forces
     atom    1 type  1   force =    -0.00008410    0.00007760    0.00001114
     atom    2 type  1   force =    -0.00011244    0.00015185   -0.00002402
     atom    3 type  1   force =    -0.00008090   -0.00012086    0.00001614
     atom    4 type  1   force =     0.00002319    0.00002472    0.00004830
     atom    5 type  1   force =     0.00007330    0.00014251   -0.00006964
     atom    6 type  1   force =     0.00015842    0.00008838   -0.00015042
     atom    7 type  1   force =     0.00012460    0.00009990   -0.00003054
     atom    8 type  1   force =     0.00009740   -0.00002617   -0.00002710
     atom    9 type  1   force =     0.00003899   -0.00008145    0.00003282
     atom   10 type  1   force =     0.00006084   -0.00013007   -0.00004658
     atom   11 type  1   force =     0.00009320    0.00001756   -0.00005304
     atom   12 type  1   force =    -0.00010850   -0.00007639    0.00005508
     atom   13 type  1   force =    -0.00012012   -0.00004609    0.00006561
     atom   14 type  1   force =    -0.00012769   -0.00019219   -0.00003414
     atom   15 type  1   force =    -0.00007641   -0.00009598   -0.00008257
     atom   16 type  1   force =    -0.00004890    0.00006948   -0.00010420
     atom   17 type  1   force =     0.00012824   -0.00004220   -0.00009502
     atom   18 type  1   force =     0.00005452    0.00001826   -0.00001081
     atom   19 type  1   force =     0.00003581   -0.00010825   -0.00007079
     atom   20 type  1   force =     0.00009788   -0.00014841   -0.00004541
     atom   21 type  1   force =     0.00008919   -0.00002977    0.00005597
     atom   22 type  1   force =     0.00009183   -0.00015954   -0.00003456
     atom   23 type  1   force =    -0.00009524   -0.00017092   -0.00004855
     atom   24 type  1   force =    -0.00008774    0.00001415    0.00003948
     atom   25 type  1   force =    -0.00014535    0.00020194   -0.00002169
     atom   26 type  1   force =    -0.00012745   -0.00000612   -0.00001538
     atom   27 type  1   force =    -0.00008880   -0.00002898    0.00001856
     atom   28 type  1   force =    -0.00015245    0.00009450    0.00004585
     atom   29 type  1   force =    -0.00015905    0.00006981   -0.00001583
     atom   30 type  1   force =     0.00011311    0.00016047    0.00000653
     atom   31 type  1   force =     0.00012571    0.00005901   -0.00016464
     atom   32 type  1   force =     0.00002566   -0.00017043    0.00000010
     atom   33 type  1   force =     0.00000242    0.00003258    0.00002622
     atom   34 type  1   force =     0.00006104    0.00009227   -0.00006863
     atom   35 type  1   force =    -0.00007203    0.00008548   -0.00007037
     atom   36 type  1   force =    -0.00011109    0.00005815   -0.00008049
     atom   37 type  1   force =    -0.00000012    0.00018018   -0.00002648
     atom   38 type  1   force =     0.00012636   -0.00005415    0.00008358
     atom   39 type  1   force =    -0.00010373   -0.00005003   -0.00008328
     atom   40 type  1   force =    -0.00000151   -0.00013019   -0.00001546
     atom   41 type  1   force =     0.00010141    0.00000409   -0.00005220
     atom   42 type  1   force =     0.00010102   -0.00001858   -0.00003494
     atom   43 type  1   force =     0.00000740    0.00008269   -0.00005645
     atom   44 type  1   force =    -0.00000649   -0.00001291   -0.00002370
     atom   45 type  1   force =     0.00001845    0.00015075   -0.00003954
     atom   46 type  1   force =     0.00003823   -0.00015902   -0.00004134
     atom   47 type  1   force =    -0.00001155    0.00014135    0.00002943
     atom   48 type  1   force =    -0.00006394    0.00007857   -0.00007176
     atom   49 type  1   force =    -0.00011837   -0.00009723   -0.00000963
     atom   50 type  1   force =    -0.00007887    0.00010993   -0.00000339
     atom   51 type  1   force =    -0.00001372   -0.00008669   -0.00006121
     atom   52 type  1   force =     0.00002882   -0.00006426    0.00004455
     atom   53 type  1   force =     0.00006363   -0.00012554    0.00002420
     atom   54 type  1   force =    -0.00006414   -0.00012429    0.00000112
     atom   55 type  1   force =    -0.00008558   -0.00002683    0.00008728
     atom   56 type  1   force =     0.00010771   -0.00003041    0.00005304
     atom   57 type  1   force =     0.00008020   -0.00010767    0.00001031
     atom   58 type  1   force =     0.00001817   -0.00004010    0.00006192
     atom   59 type  1   force =    -0.00007291   -0.00011926   -0.00002242
     atom   60 type  1   force =    -0.00009953   -0.00014414   -0.00007260
[...]
     atom   94 type  1   force =     0.00008418    0.00005716    0.00009910
     atom   95 type  1   force =    -0.00009716   -0.00000920    0.00006901
     atom   96 type  1   force =     0.00003205    0.00008961    0.00008991
     atom   97 type  1   force =    -0.00004020   -0.00003676    0.00004676
     atom   98 type  1   force =    -0.00005798    0.00008961    0.00007237
     atom   99 type  1   force =    -0.00013465   -0.00000531    0.00006057
     atom  100 type  1   force =     0.00004523    0.00000842    0.00006290
     atom  101 type  1   force =     0.00012731    0.00002252   -0.00011835
     atom  102 type  1   force =     0.00014014    0.00002059    0.00003166
     atom  103 type  1   force =     0.00018340    0.00004998    0.00003483
     atom  104 type  1   force =     0.00014941    0.00003706    0.00004667
     atom  105 type  1   force =    -0.00017230    0.00009672    0.00006620
     atom  106 type  1   force =    -0.00015053    0.00006869    0.00006353
     atom  107 type  1   force =    -0.00012324   -0.00008832   -0.00003243
     atom  108 type  1   force =    -0.00012374   -0.00008813   -0.00003576

     Total force =     6.865167     Total SCF correction =     0.001499

     Computing stress (Cartesian axis) and pressure

          total   stress  (Ry/bohr**3)                   (kbar)     P=     1585.75
   0.01118858  -0.00018216  -0.00039728         1645.90      -26.80      -58.44
  -0.00018216   0.01058520   0.00034934          -26.80     1557.14       51.39
  -0.00039728   0.00034934   0.01056537          -58.44       51.39     1554.22

     kinetic stress (kbar)   3162.07      0.21     -0.12
                                0.21   3162.16      0.34
                               -0.12      0.34   3165.11

     local   stress (kbar)   -631.85     71.03     10.18
                               71.03   -736.89     25.16
                               10.18     25.16   -890.74

     nonloc. stress (kbar)   1381.48     -2.72    -10.80
                               -2.72   1363.39      8.11
                              -10.80      8.11   1357.80

     hartree stress (kbar)    109.61    -18.72     11.88
                              -18.72    214.02    -17.08
                               11.88    -17.08    297.57

     exc-cor stress (kbar)    -44.18      0.00      0.00
                                0.00    -44.18      0.00
                                0.00      0.00    -44.18

     corecor stress (kbar)   -779.84      0.43      1.30
                                0.43   -777.84     -1.10
                                1.30     -1.10   -777.15

     ewald   stress (kbar)  -1551.39    -77.03    -70.89
                              -77.03  -1623.52     35.96
                              -70.89     35.96  -1554.18

     hubbard stress (kbar)      0.00      0.00      0.00
                                0.00      0.00      0.00
                                0.00      0.00      0.00

     london  stress (kbar)      0.00      0.00      0.00
                                0.00      0.00      0.00
                                0.00      0.00      0.00

     DFT-D3  stress (kbar)      0.00      0.00      0.00
                                0.00      0.00      0.00
                                0.00      0.00      0.00

     XDM     stress (kbar)      0.00      0.00      0.00
                                0.00      0.00      0.00
                                0.00      0.00      0.00

     dft-nl  stress (kbar)      0.00      0.00      0.00
                                0.00      0.00      0.00
                                0.00      0.00      0.00

     TS-vdW  stress (kbar)      0.00      0.00      0.00
                                0.00      0.00      0.00
                                0.00      0.00      0.00

     Writing output data file pwscf.save/

     General routines

     Parallel routines

   This run was terminated on:   6:42:24  15Mar2021

   JOB DONE.