.Version 6.6.3  of ABINIT

 ABINIT is a project of the Universite Catholique de Louvain,
 Corning Inc. and other collaborators, see ~abinit/doc/developers/contributors.txt .
 Please read ~abinit/doc/users/acknowledgments.html for suggested
 acknowledgments of the ABINIT effort.

.Starting date : Mon 29 Aug 2011.
- ( at 10h13 )

- input  file    -> al_1.in
- output file    -> al_1.outI
- root for input  files -> al_1i
- root for output files -> al_1o

 Symmetries : space group P4 m m (# 99); Bravais tP (primitive tetrag.)
   intxc =         0  ionmov =         0    iscf =         7 xclevel =         1
  lmnmax =         3   lnmax =         3   mband =       200  mffmem =         1
P  mgfft =        48   mkmem =         2 mpssoang=         3     mpw =      6726
  mqgrid =      3001   natom =        32    nfft =    110592    nkpt =         8
  nloalg =         4  nspden =         1 nspinor =         1  nsppol =         1
    nsym =         8  n1xccc =         0  ntypat =         1  occopt =         4
  Rough estimation (10% accuracy) of disk space for files :

 -outvars: echo values of preprocessed input variables --------
            acell    7.5056000000E+00  7.5056000000E+00  7.5056000000E+00 Bohr
              amu    2.69815390E+01
             ecut    1.20000000E+01 Hartree
              kpt   -2.50000000E-01  5.00000000E-01  0.00000000E+00
                     5.00000000E-01 -2.50000000E-01  0.00000000E+00
                    -2.50000000E-01 -2.50000000E-01  2.50000000E-01
                    -2.50000000E-01  0.00000000E+00  0.00000000E+00
                     5.00000000E-01  5.00000000E-01  2.50000000E-01
                    -2.50000000E-01  5.00000000E-01  5.00000000E-01
                     0.00000000E+00 -2.50000000E-01  0.00000000E+00
                     0.00000000E+00  5.00000000E-01  2.50000000E-01
          kptrlen    5.20003222E+01
         kptrlatt    2 -2  2  -2  2  2  -2 -2  2
P           mkmem         2
            natom        32
            nband       200
            ngfft        48      48      48
             nkpt         8
            nline         8
            nstep        20
             nsym         8
           ntypat         1
              occ    2.000000  2.000000  2.000000  2.000000  2.000000  2.000000
                     2.000000  2.000000  2.000000  2.000000  2.000000  2.000000
                     2.000000  2.000000  2.000000  2.000000  2.000000  2.000000
                     2.000000  2.000000  2.000000  2.000000  2.000000  2.000000
                     2.000000  2.000000  2.000000  2.000000  2.000000  2.000000
                     2.000000  2.000000  2.000000  2.000000  2.000000  2.000000
                     2.000000  2.000000  2.000000  2.000000  2.000000  2.000000
                     2.000000  2.000000  2.000000  2.000000  2.000000  2.000000
                     0.000000  0.000000  0.000000  0.000000  0.000000  0.000000
                     0.000000  0.000000  0.000000  0.000000  0.000000  0.000000
                     0.000000  0.000000  0.000000  0.000000  0.000000  0.000000
                     0.000000  0.000000  0.000000  0.000000  0.000000  0.000000
                     0.000000  0.000000  0.000000  0.000000  0.000000  0.000000
                     0.000000  0.000000  0.000000  0.000000  0.000000  0.000000
                     0.000000  0.000000  0.000000  0.000000  0.000000  0.000000
                     0.000000  0.000000  0.000000  0.000000  0.000000  0.000000
                     0.000000  0.000000  0.000000  0.000000  0.000000  0.000000
                     0.000000  0.000000  0.000000  0.000000  0.000000  0.000000
                     0.000000  0.000000  0.000000  0.000000  0.000000  0.000000
                     0.000000  0.000000  0.000000  0.000000  0.000000  0.000000
                     0.000000  0.000000  0.000000  0.000000  0.000000  0.000000
                     0.000000  0.000000  0.000000  0.000000  0.000000  0.000000
                     0.000000  0.000000  0.000000  0.000000  0.000000  0.000000
                     0.000000  0.000000  0.000000  0.000000  0.000000  0.000000
                     0.000000  0.000000  0.000000  0.000000  0.000000  0.000000
                     0.000000  0.000000  0.000000  0.000000  0.000000  0.000000
                     0.000000  0.000000  0.000000  0.000000  0.000000  0.000000
                     0.000000  0.000000  0.000000  0.000000  0.000000  0.000000
                     0.000000  0.000000  0.000000  0.000000  0.000000  0.000000
                     0.000000  0.000000  0.000000  0.000000  0.000000  0.000000
                     0.000000  0.000000  0.000000  0.000000  0.000000  0.000000
                     0.000000  0.000000  0.000000  0.000000  0.000000  0.000000
                     0.000000  0.000000  0.000000  0.000000  0.000000  0.000000
                     0.000000  0.000000
                     2.000000  2.000000  2.000000  2.000000  2.000000  2.000000
                     2.000000  2.000000  2.000000  2.000000  2.000000  2.000000
                     2.000000  2.000000  2.000000  2.000000  2.000000  2.000000
                     2.000000  2.000000  2.000000  2.000000  2.000000  2.000000
                     2.000000  2.000000  2.000000  2.000000  2.000000  2.000000
                     2.000000  2.000000  2.000000  2.000000  2.000000  2.000000
                     2.000000  2.000000  2.000000  2.000000  2.000000  2.000000
                     2.000000  2.000000  2.000000  2.000000  2.000000  2.000000
                     0.000000  0.000000  0.000000  0.000000  0.000000  0.000000
                     0.000000  0.000000  0.000000  0.000000  0.000000  0.000000
                     0.000000  0.000000  0.000000  0.000000  0.000000  0.000000
                     0.000000  0.000000  0.000000  0.000000  0.000000  0.000000
                     0.000000  0.000000  0.000000  0.000000  0.000000  0.000000
                     0.000000  0.000000  0.000000  0.000000  0.000000  0.000000
                     0.000000  0.000000  0.000000  0.000000  0.000000  0.000000
                     0.000000  0.000000  0.000000  0.000000  0.000000  0.000000
                     0.000000  0.000000  0.000000  0.000000  0.000000  0.000000
                     0.000000  0.000000  0.000000  0.000000  0.000000  0.000000
                     0.000000  0.000000  0.000000  0.000000  0.000000  0.000000
                     0.000000  0.000000  0.000000  0.000000  0.000000  0.000000
                     0.000000  0.000000  0.000000  0.000000  0.000000  0.000000
                     0.000000  0.000000  0.000000  0.000000  0.000000  0.000000
                     0.000000  0.000000  0.000000  0.000000  0.000000  0.000000
                     0.000000  0.000000  0.000000  0.000000  0.000000  0.000000
                     0.000000  0.000000  0.000000  0.000000  0.000000  0.000000
                     0.000000  0.000000  0.000000  0.000000  0.000000  0.000000
                     0.000000  0.000000  0.000000  0.000000  0.000000  0.000000
[...]
                     0.000000  0.000000  0.000000  0.000000  0.000000  0.000000
                     0.000000  0.000000  0.000000  0.000000  0.000000  0.000000
                     0.000000  0.000000  0.000000  0.000000  0.000000  0.000000
                     0.000000  0.000000  0.000000  0.000000  0.000000  0.000000
                     0.000000  0.000000  0.000000  0.000000  0.000000  0.000000
                     0.000000  0.000000  0.000000  0.000000  0.000000  0.000000
                     0.000000  0.000000  0.000000  0.000000  0.000000  0.000000
                     0.000000  0.000000  0.000000  0.000000  0.000000  0.000000
                     0.000000  0.000000  0.000000  0.000000  0.000000  0.000000
                     0.000000  0.000000  0.000000  0.000000  0.000000  0.000000
                     0.000000  0.000000  0.000000  0.000000  0.000000  0.000000
                     0.000000  0.000000  0.000000  0.000000  0.000000  0.000000
                     0.000000  0.000000  0.000000  0.000000  0.000000  0.000000
                     0.000000  0.000000  0.000000  0.000000  0.000000  0.000000
                     0.000000  0.000000
           occopt         4
            rprim    2.0000000000E+00  0.0000000000E+00  0.0000000000E+00
                     0.0000000000E+00  2.0000000000E+00  0.0000000000E+00
                     0.0000000000E+00  0.0000000000E+00  2.0000000000E+00
           shiftk    5.00000000E-01  5.00000000E-01  5.00000000E-01
          spgroup        99
           symrel    1  0  0   0  1  0   0  0  1       1  0  0   0 -1  0   0  0  1
                     1  0  0   0  1  0   0  0 -1       1  0  0   0 -1  0   0  0 -1
                     1  0  0   0  0  1   0  1  0       1  0  0   0  0 -1   0  1  0
                     1  0  0   0  0  1   0 -1  0       1  0  0   0  0 -1   0 -1  0
            tnons    0.0000000  0.0000000  0.0000000     0.0000000  0.0000000  0.0000000
                     0.0000000  0.0000000  0.5000000     0.0000000  0.0000000  0.5000000
                     0.0000000 -0.2500000  0.2500000     0.0000000 -0.2500000  0.2500000
                     0.0000000  0.2500000  0.2500000     0.0000000  0.2500000  0.2500000
           toldfe    1.00000000E-08 Hartree
           tsmear    5.00000000E-02 Hartree
            typat    1  1  1  1  1  1  1  1  1  1  1  1  1  1  1  1  1  1  1  1
                     1  1  1  1  1  1  1  1  1  1  1  1
              wtk      0.12500    0.12500    0.25000    0.06250    0.12500    0.06250
                       0.12500    0.12500
           xangst    0.0000000000E+00  0.0000000000E+00  0.0000000000E+00
                     3.9717924568E+00  0.0000000000E+00  0.0000000000E+00
                     0.0000000000E+00  3.9717924568E+00  0.0000000000E+00
                     3.9717924568E+00  3.9717924568E+00  0.0000000000E+00
                     0.0000000000E+00  0.0000000000E+00  3.9717924568E+00
                     3.9717924568E+00  0.0000000000E+00  3.9717924568E+00
                     0.0000000000E+00  3.9717924568E+00  3.9717924568E+00
                     3.9717924568E+00  3.9717924568E+00  3.9717924568E+00
                     1.9858962284E+00  1.9858962284E+00  0.0000000000E+00
                     5.9576886852E+00  1.9858962284E+00  0.0000000000E+00
                     1.9858962284E+00  5.9576886852E+00  0.0000000000E+00
                     5.9576886852E+00  5.9576886852E+00  0.0000000000E+00
                     1.9858962284E+00  1.9858962284E+00  3.9717924568E+00
                     5.9576886852E+00  1.9858962284E+00  3.9717924568E+00
                     1.9858962284E+00  5.9576886852E+00  3.9717924568E+00
                     5.9576886852E+00  5.9576886852E+00  3.9717924568E+00
                     0.0000000000E+00  1.9858962284E+00  1.9858962284E+00
                     3.9717924568E+00  1.9858962284E+00  1.9858962284E+00
                     0.0000000000E+00  5.9576886852E+00  1.9858962284E+00
                     3.9717924568E+00  5.9576886852E+00  1.9858962284E+00
                     0.0000000000E+00  1.9858962284E+00  5.9576886852E+00
[...]
                     2.028714  2.028765  2.028852  2.029057  2.071828  2.071959
                     2.138826  2.138891  2.138945  2.139210  2.094417  2.090452
                     1.933022  1.928531  1.635511  1.632021  1.628109  1.623396
                     0.536318  0.526775  0.359232  0.352334  0.224973  0.220347
                     0.122773  0.122680  0.001788  0.001792  0.005208  0.005208
                     0.005102  0.005101  0.005101  0.005100  0.004178  0.004178
                     0.003787  0.003787  0.003785  0.003784  0.003058  0.003057
                     0.000803  0.000801  0.000191  0.000191  0.000167  0.000167
                     0.000035  0.000034  0.000004  0.000004  0.000003  0.000003
                     0.000003  0.000003  0.000002  0.000002  0.000000  0.000000
                     0.000000  0.000000  0.000000  0.000000  0.000000  0.000000
                     0.000000  0.000000  0.000000  0.000000  0.000000  0.000000
                     0.000000  0.000000  0.000000  0.000000  0.000000  0.000000
                     0.000000  0.000000  0.000000  0.000000  0.000000  0.000000
                     0.000000  0.000000  0.000000  0.000000  0.000000  0.000000
                     0.000000  0.000000  0.000000  0.000000  0.000000  0.000000
                     0.000000  0.000000  0.000000  0.000000  0.000000  0.000000
                     0.000000  0.000000  0.000000  0.000000  0.000000  0.000000
                     0.000000  0.000000  0.000000  0.000000  0.000000  0.000000
                     0.000000  0.000000  0.000000  0.000000  0.000000  0.000000
                     0.000000  0.000000  0.000000  0.000000  0.000000  0.000000
                     0.000000  0.000000  0.000000  0.000000  0.000000  0.000000
                     0.000000  0.000000  0.000000  0.000000  0.000000  0.000000
                     0.000000  0.000000  0.000000  0.000000  0.000000  0.000000
                     0.000000  0.000000  0.000000  0.000000  0.000000  0.000000
                     0.000000  0.000000  0.000000  0.000000  0.000000  0.000000
                     0.000000  0.000000  0.000000  0.000000  0.000000  0.000000
                     0.000000  0.000000  0.000000  0.000000  0.000000  0.000000
                     0.000000  0.000000
                     2.000000  2.000000  2.000000  2.000000  2.000000  2.000000
                     2.000000  2.000000  2.000000  2.000000  2.000000  2.000000
                     2.000000  2.000000  2.000000  2.000000  2.000006  2.000006
                     2.000006  2.000006  2.000006  2.000006  2.000743  2.000746
                     2.000835  2.000838  2.000841  2.000855  2.026106  2.026230
                     2.028709  2.028755  2.028879  2.029191  2.071730  2.072382
                     2.138823  2.138838  2.138937  2.139051  2.094427  2.092351
                     1.933848  1.930007  1.635750  1.634925  1.632177  1.611557
                     0.537089  0.531695  0.359374  0.353412  0.225812  0.224653
                     0.122912  0.122543  0.001785  0.001796  0.005207  0.005209
                     0.005103  0.005102  0.005100  0.005100  0.004178  0.004178
                     0.003789  0.003787  0.003784  0.003783  0.003059  0.003055
                     0.000803  0.000801  0.000191  0.000191  0.000167  0.000166
                     0.000035  0.000035  0.000004  0.000004  0.000003  0.000003
                     0.000003  0.000003  0.000002  0.000002  0.000000  0.000000
                     0.000000  0.000000  0.000000  0.000000  0.000000  0.000000
                     0.000000  0.000000  0.000000  0.000000  0.000000  0.000000
                     0.000000  0.000000  0.000000  0.000000  0.000000  0.000000
                     0.000000  0.000000  0.000000  0.000000  0.000000  0.000000
                     0.000000  0.000000  0.000000  0.000000  0.000000  0.000000
                     0.000000  0.000000  0.000000  0.000000  0.000000  0.000000
                     0.000000  0.000000  0.000000  0.000000  0.000000  0.000000
                     0.000000  0.000000  0.000000  0.000000  0.000000  0.000000
                     0.000000  0.000000  0.000000  0.000000  0.000000  0.000000
                     0.000000  0.000000  0.000000  0.000000  0.000000  0.000000
                     0.000000  0.000000  0.000000  0.000000  0.000000  0.000000
                     0.000000  0.000000  0.000000  0.000000  0.000000  0.000000
[...]
                     0.000000  0.000000  0.000000  0.000000  0.000000  0.000000
                     0.000000  0.000000  0.000000  0.000000  0.000000  0.000000
                     0.000000  0.000000  0.000000  0.000000  0.000000  0.000000
                     0.000000  0.000000  0.000000  0.000000  0.000000  0.000000
                     0.000000  0.000000  0.000000  0.000000  0.000000  0.000000
                     0.000000  0.000000  0.000000  0.000000  0.000000  0.000000
                     0.000000  0.000000  0.000000  0.000000  0.000000  0.000000
                     0.000000  0.000000  0.000000  0.000000  0.000000  0.000000
                     0.000000  0.000000  0.000000  0.000000  0.000000  0.000000
                     0.000000  0.000000  0.000000  0.000000  0.000000  0.000000
                     0.000000  0.000000  0.000000  0.000000  0.000000  0.000000
                     0.000000  0.000000  0.000000  0.000000  0.000000  0.000000
                     0.000000  0.000000  0.000000  0.000000  0.000000  0.000000
                     0.000000  0.000000  0.000000  0.000000  0.000000  0.000000
                     0.000000  0.000000
           occopt         4
            rprim    2.0000000000E+00  0.0000000000E+00  0.0000000000E+00
                     0.0000000000E+00  2.0000000000E+00  0.0000000000E+00
                     0.0000000000E+00  0.0000000000E+00  2.0000000000E+00
           shiftk    5.00000000E-01  5.00000000E-01  5.00000000E-01
          spgroup        99
           strten   -1.2900056627E-04 -3.5214528083E-05 -3.5214528083E-05
                     0.0000000000E+00  0.0000000000E+00  0.0000000000E+00
           symrel    1  0  0   0  1  0   0  0  1       1  0  0   0 -1  0   0  0  1
                     1  0  0   0  1  0   0  0 -1       1  0  0   0 -1  0   0  0 -1
                     1  0  0   0  0  1   0  1  0       1  0  0   0  0 -1   0  1  0
                     1  0  0   0  0  1   0 -1  0       1  0  0   0  0 -1   0 -1  0
            tnons    0.0000000  0.0000000  0.0000000     0.0000000  0.0000000  0.0000000
                     0.0000000  0.0000000  0.5000000     0.0000000  0.0000000  0.5000000
                     0.0000000 -0.2500000  0.2500000     0.0000000 -0.2500000  0.2500000
                     0.0000000  0.2500000  0.2500000     0.0000000  0.2500000  0.2500000
           toldfe    1.00000000E-08 Hartree
           tsmear    5.00000000E-02 Hartree
            typat    1  1  1  1  1  1  1  1  1  1  1  1  1  1  1  1  1  1  1  1
                     1  1  1  1  1  1  1  1  1  1  1  1
              wtk      0.12500    0.12500    0.25000    0.06250    0.12500    0.06250
                       0.12500    0.12500
           xangst    0.0000000000E+00  0.0000000000E+00  0.0000000000E+00
                     3.9717924568E+00  0.0000000000E+00  0.0000000000E+00
                     0.0000000000E+00  3.9717924568E+00  0.0000000000E+00
                     3.9717924568E+00  3.9717924568E+00  0.0000000000E+00
                     0.0000000000E+00  0.0000000000E+00  3.9717924568E+00
                     3.9717924568E+00  0.0000000000E+00  3.9717924568E+00
                     0.0000000000E+00  3.9717924568E+00  3.9717924568E+00
                     3.9717924568E+00  3.9717924568E+00  3.9717924568E+00
                     1.9858962284E+00  1.9858962284E+00  0.0000000000E+00
                     5.9576886852E+00  1.9858962284E+00  0.0000000000E+00
                     1.9858962284E+00  5.9576886852E+00  0.0000000000E+00
                     5.9576886852E+00  5.9576886852E+00  0.0000000000E+00
                     1.9858962284E+00  1.9858962284E+00  3.9717924568E+00
                     5.9576886852E+00  1.9858962284E+00  3.9717924568E+00
                     1.9858962284E+00  5.9576886852E+00  3.9717924568E+00
                     5.9576886852E+00  5.9576886852E+00  3.9717924568E+00
                     0.0000000000E+00  1.9858962284E+00  1.9858962284E+00
                     3.9717924568E+00  1.9858962284E+00  1.9858962284E+00
                     0.0000000000E+00  5.9576886852E+00  1.9858962284E+00
                     3.9717924568E+00  5.9576886852E+00  1.9858962284E+00
                     0.0000000000E+00  1.9858962284E+00  5.9576886852E+00
                     3.9717924568E+00  1.9858962284E+00  5.9576886852E+00
                     0.0000000000E+00  5.9576886852E+00  5.9576886852E+00
                     3.9717924568E+00  5.9576886852E+00  5.9576886852E+00
                     1.9858962284E+00  0.0000000000E+00  1.9858962284E+00
                     5.9576886852E+00  0.0000000000E+00  1.9858962284E+00
                     1.9858962284E+00  3.9717924568E+00  1.9858962284E+00
                     5.9576886852E+00  3.9717924568E+00  1.9858962284E+00
                     1.9858962284E+00  0.0000000000E+00  5.9576886852E+00
                     5.9576886852E+00  0.0000000000E+00  5.9576886852E+00
                     1.9858962284E+00  3.9717924568E+00  5.9576886852E+00
                     5.9584830437E+00  3.9717924568E+00  5.9576886852E+00
            xcart    0.0000000000E+00  0.0000000000E+00  0.0000000000E+00
                     7.5056000000E+00  0.0000000000E+00  0.0000000000E+00
                     0.0000000000E+00  7.5056000000E+00  0.0000000000E+00
                     7.5056000000E+00  7.5056000000E+00  0.0000000000E+00
                     0.0000000000E+00  0.0000000000E+00  7.5056000000E+00
                     7.5056000000E+00  0.0000000000E+00  7.5056000000E+00
                     0.0000000000E+00  7.5056000000E+00  7.5056000000E+00
                     7.5056000000E+00  7.5056000000E+00  7.5056000000E+00
                     3.7528000000E+00  3.7528000000E+00  0.0000000000E+00
                     1.1258400000E+01  3.7528000000E+00  0.0000000000E+00
                     3.7528000000E+00  1.1258400000E+01  0.0000000000E+00
                     1.1258400000E+01  1.1258400000E+01  0.0000000000E+00
                     3.7528000000E+00  3.7528000000E+00  7.5056000000E+00
                     1.1258400000E+01  3.7528000000E+00  7.5056000000E+00
                     3.7528000000E+00  1.1258400000E+01  7.5056000000E+00
                     1.1258400000E+01  1.1258400000E+01  7.5056000000E+00
                     0.0000000000E+00  3.7528000000E+00  3.7528000000E+00
                     7.5056000000E+00  3.7528000000E+00  3.7528000000E+00
                     0.0000000000E+00  1.1258400000E+01  3.7528000000E+00
                     7.5056000000E+00  1.1258400000E+01  3.7528000000E+00
                     0.0000000000E+00  3.7528000000E+00  1.1258400000E+01
                     7.5056000000E+00  3.7528000000E+00  1.1258400000E+01
                     0.0000000000E+00  1.1258400000E+01  1.1258400000E+01
                     7.5056000000E+00  1.1258400000E+01  1.1258400000E+01
                     3.7528000000E+00  0.0000000000E+00  3.7528000000E+00
                     1.1258400000E+01  0.0000000000E+00  3.7528000000E+00
                     3.7528000000E+00  7.5056000000E+00  3.7528000000E+00
                     1.1258400000E+01  7.5056000000E+00  3.7528000000E+00
                     3.7528000000E+00  0.0000000000E+00  1.1258400000E+01
                     1.1258400000E+01  0.0000000000E+00  1.1258400000E+01
                     3.7528000000E+00  7.5056000000E+00  1.1258400000E+01
                     1.1259901120E+01  7.5056000000E+00  1.1258400000E+01
             xred    0.0000000000E+00  0.0000000000E+00  0.0000000000E+00
                     5.0000000000E-01  0.0000000000E+00  0.0000000000E+00
                     0.0000000000E+00  5.0000000000E-01  0.0000000000E+00
                     5.0000000000E-01  5.0000000000E-01  0.0000000000E+00
                     0.0000000000E+00  0.0000000000E+00  5.0000000000E-01
                     5.0000000000E-01  0.0000000000E+00  5.0000000000E-01
                     0.0000000000E+00  5.0000000000E-01  5.0000000000E-01
                     5.0000000000E-01  5.0000000000E-01  5.0000000000E-01
                     2.5000000000E-01  2.5000000000E-01  0.0000000000E+00
                     7.5000000000E-01  2.5000000000E-01  0.0000000000E+00
                     2.5000000000E-01  7.5000000000E-01  0.0000000000E+00
                     7.5000000000E-01  7.5000000000E-01  0.0000000000E+00
                     2.5000000000E-01  2.5000000000E-01  5.0000000000E-01
                     7.5000000000E-01  2.5000000000E-01  5.0000000000E-01
                     2.5000000000E-01  7.5000000000E-01  5.0000000000E-01
                     7.5000000000E-01  7.5000000000E-01  5.0000000000E-01
                     0.0000000000E+00  2.5000000000E-01  2.5000000000E-01
                     5.0000000000E-01  2.5000000000E-01  2.5000000000E-01
                     0.0000000000E+00  7.5000000000E-01  2.5000000000E-01
                     5.0000000000E-01  7.5000000000E-01  2.5000000000E-01
                     0.0000000000E+00  2.5000000000E-01  7.5000000000E-01
                     5.0000000000E-01  2.5000000000E-01  7.5000000000E-01
                     0.0000000000E+00  7.5000000000E-01  7.5000000000E-01
                     5.0000000000E-01  7.5000000000E-01  7.5000000000E-01
                     2.5000000000E-01  0.0000000000E+00  2.5000000000E-01
                     7.5000000000E-01  0.0000000000E+00  2.5000000000E-01
                     2.5000000000E-01  5.0000000000E-01  2.5000000000E-01
                     7.5000000000E-01  5.0000000000E-01  2.5000000000E-01
                     2.5000000000E-01  0.0000000000E+00  7.5000000000E-01
                     7.5000000000E-01  0.0000000000E+00  7.5000000000E-01
                     2.5000000000E-01  5.0000000000E-01  7.5000000000E-01
                     7.5010000000E-01  5.0000000000E-01  7.5000000000E-01
            znucl     13.00000

- Timing analysis has been suppressed with timopt=0

 Suggested references for the acknowledgment of ABINIT usage.

 [1] Ab initio pseudopotentials for electronic structure calculations of poly-atomic systems,
 using density-functional theory.
 M. Fuchs, M. Scheffler, Comput. Phys. Commun. 119, 67 (1999).
 Comment : Some pseudopotential generated using the FHI code were used.

 [2] ABINIT : First-principles approach of materials and nanosystem properties.
 X. Gonze, B. Amadon, P.-M. Anglade, J.-M. Beuken, F. Bottin, P. Boulanger, F. Bruneval,
 D. Caliste, R. Caracas, M. Cote, T. Deutsch, L. Genovese, Ph. Ghosez, M. Giantomassi
 S. Goedecker, D.R. Hamann, P. Hermet, F. Jollet, G. Jomard, S. Leroux, M. Mancini, S. Mazevet,
 M.J.T. Oliveira, G. Onida, Y. Pouillon, T. Rangel, G.-M. Rignanese, D. Sangalli, R. Shaltaf,
 M. Torrent, M.J. Verstraete, G. Zerah, J.W. Zwanziger
 Computer Phys. Comm. 180, 2582-2615 (2009).
 Comment : the third generic paper describing the ABINIT project.
 Note that a version of this paper, that is not formatted for Computer Phys. Comm.
 The licence allows the authors to put it on the Web.

 [3] A brief introduction to the ABINIT software package.
 X. Gonze, G.-M. Rignanese, M. Verstraete, J.-M. Beuken, Y. Pouillon, R. Caracas, F. Jollet,
 M. Torrent, G. Zerah, M. Mikami, Ph. Ghosez, M. Veithen, J.-Y. Raty, V. Olevano, F. Bruneval,
 L. Reining, R. Godby, G. Onida, D.R. Hamann, and D.C. Allan.
 Z. Kristallogr. 220, 558-562 (2005).
 Comment : the second generic paper describing the ABINIT project. Note that this paper
 should be cited especially if you are using the GW part of ABINIT, as several authors
 of this part are not in the list of authors of the first or third paper.
 Note that it should not redistributed (Copyright by Oldenburg Wissenshaftverlag,
 the licence allows the authors to put it on the Web).

 And optionally :

 [4] First-principles computation of material properties : the ABINIT software project.
 X. Gonze, J.-M. Beuken, R. Caracas, F. Detraux, M. Fuchs, G.-M. Rignanese, L. Sindic,
 M. Verstraete, G. Zerah, F. Jollet, M. Torrent, A. Roy, M. Mikami, Ph. Ghosez, J.-Y. Raty, D.C. Allan.
 Comment : the original paper describing the ABINIT project.

 [5] Fast radix 2, 3, 4 and 5 kernels for Fast Fourier Transformations
 on computers with overlapping multiply-add instructions.
 S. Goedecker, SIAM J. on Scientific Computing 18, 1605 (1997).
-

 Calculation completed.
.Delivered    2 WARNINGs and   1 COMMENTs to log file.