.Version 7.10.5 of ABINIT

 ABINIT is a project of the Universite Catholique de Louvain,
 Corning Inc. and other collaborators, see ~abinit/doc/developers/contributors.txt .
 Please read ~abinit/doc/users/acknowledgments.html for suggested
 acknowledgments of the ABINIT effort.

.Starting date : Mon  5 Dec 2016.
- ( at 13h26 )

- input  file    -> abinit.in
- output file    -> abinit.out
- root for input  files -> abi
- root for output files -> abo

 Symmetries : space group Fm -3 m (#225); Bravais cF (face-center cubic)
   intxc =         0  ionmov =         2    iscf =         7 xclevel =         2
  lmnmax =         4   lnmax =         4   mband =         6  mffmem =         1
P  mgfft =        45   mkmem =        57 mpssoang=         4     mpw =      3146
  mqgrid =      3001   natom =         1    nfft =     91125    nkpt =       455
  nloalg =         4  nspden =         1 nspinor =         1  nsppol =         1
    nsym =        48  n1xccc =         0  ntypat =         1  occopt =         6
  Rough estimation (10% accuracy) of disk space for files :

------------- Echo of variables that govern the present computation ------------
-
- outvars: echo of selected default values
-   accesswff0 =  0 , fftalg0 =312 , wfoptalg0 =  0
-
- outvars: echo of global parameters not present in the input file
-  max_nthreads =    0
-
 -outvars: echo values of preprocessed input variables --------
            acell      1.8897261329E+00  1.8897261329E+00  1.8897261329E+00 Bohr
              amu      2.69815390E+01
        autoparal           1
          dilatmx      1.80000000E+00
        dosdeltae      1.83746627E-03 Hartree
             ecut      2.20495952E+01 Hartree
           ecutsm      5.00000000E-01 Hartree
           enunit           1
-          fftalg         312
           ionmov           2
           istwfk        2    0    0    0    0    0    0    0    0    0
                         0    0    0    0    0    0    0    0    0    0
                         0    0    0    0    0    0    0    0    0    0
                         0    0    0    0    0    0    0    0    0    0
                         0    0    0    0    0    0    0    0    0    0
                       outvar_i_n : Printing only first  50 k-points.
              ixc     -263267
              kpt      0.00000000E+00  0.00000000E+00  0.00000000E+00
                       4.00000000E-02  0.00000000E+00  0.00000000E+00
                       8.00000000E-02  0.00000000E+00  0.00000000E+00
                       1.20000000E-01  0.00000000E+00  0.00000000E+00
                       1.60000000E-01  0.00000000E+00  0.00000000E+00
                       2.00000000E-01  0.00000000E+00  0.00000000E+00
                       2.40000000E-01  0.00000000E+00  0.00000000E+00
                       2.80000000E-01  0.00000000E+00  0.00000000E+00
                       3.20000000E-01  0.00000000E+00  0.00000000E+00
                       3.60000000E-01  0.00000000E+00  0.00000000E+00
                       4.00000000E-01  0.00000000E+00  0.00000000E+00
                       4.40000000E-01  0.00000000E+00  0.00000000E+00
                       4.80000000E-01  0.00000000E+00  0.00000000E+00
                       4.00000000E-02  4.00000000E-02  0.00000000E+00
                       8.00000000E-02  4.00000000E-02  0.00000000E+00
                       1.20000000E-01  4.00000000E-02  0.00000000E+00
                       1.60000000E-01  4.00000000E-02  0.00000000E+00
                       2.00000000E-01  4.00000000E-02  0.00000000E+00
                       2.40000000E-01  4.00000000E-02  0.00000000E+00
                       2.80000000E-01  4.00000000E-02  0.00000000E+00
                       3.20000000E-01  4.00000000E-02  0.00000000E+00
                       3.60000000E-01  4.00000000E-02  0.00000000E+00
                       4.00000000E-01  4.00000000E-02  0.00000000E+00
                       4.40000000E-01  4.00000000E-02  0.00000000E+00
                       4.80000000E-01  4.00000000E-02  0.00000000E+00
                      -4.80000000E-01  4.00000000E-02  0.00000000E+00
                      -4.40000000E-01  4.00000000E-02  0.00000000E+00
                      -4.00000000E-01  4.00000000E-02  0.00000000E+00
                      -3.60000000E-01  4.00000000E-02  0.00000000E+00
                      -3.20000000E-01  4.00000000E-02  0.00000000E+00
                      -2.80000000E-01  4.00000000E-02  0.00000000E+00
                      -2.40000000E-01  4.00000000E-02  0.00000000E+00
                      -2.00000000E-01  4.00000000E-02  0.00000000E+00
                      -1.60000000E-01  4.00000000E-02  0.00000000E+00
                      -1.20000000E-01  4.00000000E-02  0.00000000E+00
                      -8.00000000E-02  4.00000000E-02  0.00000000E+00
                      -4.00000000E-02  4.00000000E-02  0.00000000E+00
                       8.00000000E-02  8.00000000E-02  0.00000000E+00
                       1.20000000E-01  8.00000000E-02  0.00000000E+00
                       1.60000000E-01  8.00000000E-02  0.00000000E+00
                       2.00000000E-01  8.00000000E-02  0.00000000E+00
                       2.40000000E-01  8.00000000E-02  0.00000000E+00
                       2.80000000E-01  8.00000000E-02  0.00000000E+00
                       3.20000000E-01  8.00000000E-02  0.00000000E+00
                       3.60000000E-01  8.00000000E-02  0.00000000E+00
                       4.00000000E-01  8.00000000E-02  0.00000000E+00
                       4.40000000E-01  8.00000000E-02  0.00000000E+00
                       4.80000000E-01  8.00000000E-02  0.00000000E+00
                      -4.80000000E-01  8.00000000E-02  0.00000000E+00
                      -4.40000000E-01  8.00000000E-02  0.00000000E+00
                       outvar_i_n : Printing only first  50 k-points.
         kptrlatt       25    0    0      0   25    0      0    0   25
          kptrlen      1.33790846E+02
P           mkmem          57
            natom           1
            nband           6
            ngfft          45      45      45
             nkpt         455
-           npkpt           8
            nstep          50
             nsym          48
            ntime          30
           ntypat           1
              occ      2.000000  1.000000  0.000000  0.000000  0.000000  0.000000
                       2.000000  1.000000  0.000000  0.000000  0.000000  0.000000
                       2.000000  1.000000  0.000000  0.000000  0.000000  0.000000
                       2.000000  1.000000  0.000000  0.000000  0.000000  0.000000
                       2.000000  1.000000  0.000000  0.000000  0.000000  0.000000
                       2.000000  1.000000  0.000000  0.000000  0.000000  0.000000
                       2.000000  1.000000  0.000000  0.000000  0.000000  0.000000
                       2.000000  1.000000  0.000000  0.000000  0.000000  0.000000
                       2.000000  1.000000  0.000000  0.000000  0.000000  0.000000
                       2.000000  1.000000  0.000000  0.000000  0.000000  0.000000
                       2.000000  1.000000  0.000000  0.000000  0.000000  0.000000
                       2.000000  1.000000  0.000000  0.000000  0.000000  0.000000
                       2.000000  1.000000  0.000000  0.000000  0.000000  0.000000
                       2.000000  1.000000  0.000000  0.000000  0.000000  0.000000
                       2.000000  1.000000  0.000000  0.000000  0.000000  0.000000
                       2.000000  1.000000  0.000000  0.000000  0.000000  0.000000
                       2.000000  1.000000  0.000000  0.000000  0.000000  0.000000
                       2.000000  1.000000  0.000000  0.000000  0.000000  0.000000
                       2.000000  1.000000  0.000000  0.000000  0.000000  0.000000
                       2.000000  1.000000  0.000000  0.000000  0.000000  0.000000
                       2.000000  1.000000  0.000000  0.000000  0.000000  0.000000
                       2.000000  1.000000  0.000000  0.000000  0.000000  0.000000
                       2.000000  1.000000  0.000000  0.000000  0.000000  0.000000
                       2.000000  1.000000  0.000000  0.000000  0.000000  0.000000
                       2.000000  1.000000  0.000000  0.000000  0.000000  0.000000
                       2.000000  1.000000  0.000000  0.000000  0.000000  0.000000
                       2.000000  1.000000  0.000000  0.000000  0.000000  0.000000
                       2.000000  1.000000  0.000000  0.000000  0.000000  0.000000
                       2.000000  1.000000  0.000000  0.000000  0.000000  0.000000
                       2.000000  1.000000  0.000000  0.000000  0.000000  0.000000
                       2.000000  1.000000  0.000000  0.000000  0.000000  0.000000
                       2.000000  1.000000  0.000000  0.000000  0.000000  0.000000
                       2.000000  1.000000  0.000000  0.000000  0.000000  0.000000
                       2.000000  1.000000  0.000000  0.000000  0.000000  0.000000
                       2.000000  1.000000  0.000000  0.000000  0.000000  0.000000
                       2.000000  1.000000  0.000000  0.000000  0.000000  0.000000
                       2.000000  1.000000  0.000000  0.000000  0.000000  0.000000
                       2.000000  1.000000  0.000000  0.000000  0.000000  0.000000
                       2.000000  1.000000  0.000000  0.000000  0.000000  0.000000
                       2.000000  1.000000  0.000000  0.000000  0.000000  0.000000
                       2.000000  1.000000  0.000000  0.000000  0.000000  0.000000
                       2.000000  1.000000  0.000000  0.000000  0.000000  0.000000
                       2.000000  1.000000  0.000000  0.000000  0.000000  0.000000
                       2.000000  1.000000  0.000000  0.000000  0.000000  0.000000
                       2.000000  1.000000  0.000000  0.000000  0.000000  0.000000
                       2.000000  1.000000  0.000000  0.000000  0.000000  0.000000
                       2.000000  1.000000  0.000000  0.000000  0.000000  0.000000
                       2.000000  1.000000  0.000000  0.000000  0.000000  0.000000
                       2.000000  1.000000  0.000000  0.000000  0.000000  0.000000
                       2.000000  1.000000  0.000000  0.000000  0.000000  0.000000
                       prtocc : prtvol=0, do not print more k-points.
           occopt           6
          optcell           1
           prtden           0
           prtdos           2
        prtposcar           1
            prtwf           0
            rprim      0.0000000000E+00  2.0025000000E+00  2.0025000000E+00
                       2.0025000000E+00  0.0000000000E+00  2.0025000000E+00
                       2.0025000000E+00  2.0025000000E+00  0.0000000000E+00
          spgroup         225
           symrel      1  0  0   0  1  0   0  0  1      -1  0  0   0 -1  0   0  0 -1
                       0 -1  1   0 -1  0   1 -1  0       0  1 -1   0  1  0  -1  1  0
                      -1  0  0  -1  0  1  -1  1  0       1  0  0   1  0 -1   1 -1  0
[...]
,Next maximum=    3.8461E-02  at reduced coord.    0.5111    0.8222    0.8444
,     Minimum=    3.6369E-03  at reduced coord.    0.0000    0.0000    0.0000
,Next minimum=    3.8155E-03  at reduced coord.    0.0222    0.0000    0.0000
,  Integrated=    3.0000E+00

 Components of total free energy (in Hartree) :

    Kinetic energy  =  9.55082092476604E-01
    Hartree energy  =  6.13285247214898E-03
    XC energy       = -8.46627147147138E-01
    Ewald energy    = -2.87275032209741E+00
    PspCore energy  = -8.70881724561949E-02
    Loc. psp. energy=  3.09013052530055E-01
    NL   psp  energy=  4.71706270626037E-01
    >>>>> Internal E= -2.06453137359590E+00

    -kT*entropy     = -7.31037637443723E-07
    >>>>>>>>> Etotal= -2.06453210463353E+00

 Other information on the energy :
    Total energy(eV)= -5.61787755904768E+01 ; Band energy (Ha)=   6.1815750871E-01

 Cartesian components of stress tensor (hartree/bohr^3)
  sigma(1 1)= -1.54238493E-12  sigma(3 2)=  0.00000000E+00
  sigma(2 2)= -1.54238514E-12  sigma(3 1)=  0.00000000E+00
  sigma(3 3)= -1.54238525E-12  sigma(2 1)=  0.00000000E+00

-Cartesian components of stress tensor (GPa)         [Pressure=  4.5379E-08 GPa]
- sigma(1 1)= -4.53785236E-08  sigma(3 2)=  0.00000000E+00
- sigma(2 2)= -4.53785300E-08  sigma(3 1)=  0.00000000E+00
- sigma(3 3)= -4.53785332E-08  sigma(2 1)=  0.00000000E+00

== END DATASET(S) ==============================================================

 -outvars: echo values of variables after computation  --------
            acell      1.7932398722E+00  1.7932398722E+00  1.7932398722E+00 Bohr
              amu      2.69815390E+01
        autoparal           1
          dilatmx      1.80000000E+00
        dosdeltae      1.83746627E-03 Hartree
             ecut      2.20495952E+01 Hartree
           ecutsm      5.00000000E-01 Hartree
           enunit           1
           etotal     -2.0645321046E+00
            fcart      0.0000000000E+00  0.0000000000E+00  0.0000000000E+00
-          fftalg         312
           ionmov           2
           istwfk        2    0    0    0    0    0    0    0    0    0
                         0    0    0    0    0    0    0    0    0    0
                         0    0    0    0    0    0    0    0    0    0
                         0    0    0    0    0    0    0    0    0    0
                         0    0    0    0    0    0    0    0    0    0
                       outvar_i_n : Printing only first  50 k-points.
              ixc     -263267
              kpt      0.00000000E+00  0.00000000E+00  0.00000000E+00
                       4.00000000E-02  0.00000000E+00  0.00000000E+00
                       8.00000000E-02  0.00000000E+00  0.00000000E+00
                       1.20000000E-01  0.00000000E+00  0.00000000E+00
                       1.60000000E-01  0.00000000E+00  0.00000000E+00
                       2.00000000E-01  0.00000000E+00  0.00000000E+00
                       2.40000000E-01  0.00000000E+00  0.00000000E+00
                       2.80000000E-01  0.00000000E+00  0.00000000E+00
                       3.20000000E-01  0.00000000E+00  0.00000000E+00
                       3.60000000E-01  0.00000000E+00  0.00000000E+00
                       4.00000000E-01  0.00000000E+00  0.00000000E+00
                       4.40000000E-01  0.00000000E+00  0.00000000E+00
                       4.80000000E-01  0.00000000E+00  0.00000000E+00
                       4.00000000E-02  4.00000000E-02  0.00000000E+00
                       8.00000000E-02  4.00000000E-02  0.00000000E+00
                       1.20000000E-01  4.00000000E-02  0.00000000E+00
                       1.60000000E-01  4.00000000E-02  0.00000000E+00
                       2.00000000E-01  4.00000000E-02  0.00000000E+00
                       2.40000000E-01  4.00000000E-02  0.00000000E+00
                       2.80000000E-01  4.00000000E-02  0.00000000E+00
                       3.20000000E-01  4.00000000E-02  0.00000000E+00
                       3.60000000E-01  4.00000000E-02  0.00000000E+00
                       4.00000000E-01  4.00000000E-02  0.00000000E+00
                       4.40000000E-01  4.00000000E-02  0.00000000E+00
                       4.80000000E-01  4.00000000E-02  0.00000000E+00
                      -4.80000000E-01  4.00000000E-02  0.00000000E+00
                      -4.40000000E-01  4.00000000E-02  0.00000000E+00
                      -4.00000000E-01  4.00000000E-02  0.00000000E+00
                      -3.60000000E-01  4.00000000E-02  0.00000000E+00
                      -3.20000000E-01  4.00000000E-02  0.00000000E+00
                      -2.80000000E-01  4.00000000E-02  0.00000000E+00
                      -2.40000000E-01  4.00000000E-02  0.00000000E+00
                      -2.00000000E-01  4.00000000E-02  0.00000000E+00
                      -1.60000000E-01  4.00000000E-02  0.00000000E+00
                      -1.20000000E-01  4.00000000E-02  0.00000000E+00
                      -8.00000000E-02  4.00000000E-02  0.00000000E+00
                      -4.00000000E-02  4.00000000E-02  0.00000000E+00
                       8.00000000E-02  8.00000000E-02  0.00000000E+00
                       1.20000000E-01  8.00000000E-02  0.00000000E+00
                       1.60000000E-01  8.00000000E-02  0.00000000E+00
                       2.00000000E-01  8.00000000E-02  0.00000000E+00
                       2.40000000E-01  8.00000000E-02  0.00000000E+00
                       2.80000000E-01  8.00000000E-02  0.00000000E+00
                       3.20000000E-01  8.00000000E-02  0.00000000E+00
                       3.60000000E-01  8.00000000E-02  0.00000000E+00
                       4.00000000E-01  8.00000000E-02  0.00000000E+00
                       4.40000000E-01  8.00000000E-02  0.00000000E+00
                       4.80000000E-01  8.00000000E-02  0.00000000E+00
                      -4.80000000E-01  8.00000000E-02  0.00000000E+00
                      -4.40000000E-01  8.00000000E-02  0.00000000E+00
                       outvar_i_n : Printing only first  50 k-points.
         kptrlatt       25    0    0      0   25    0      0    0   25
          kptrlen      1.33790846E+02
P           mkmem          57
            natom           1
            nband           6
            ngfft          45      45      45
             nkpt         455
-           npkpt           8
            nstep          50
             nsym          48
            ntime          30
           ntypat           1
              occ      2.000000  0.000000  0.000000  0.000000  0.000000  0.000000
                       2.000000  0.000000  0.000000  0.000000  0.000000  0.000000
                       2.000000  0.000000  0.000000  0.000000  0.000000  0.000000
                       2.000000  0.000000  0.000000  0.000000  0.000000  0.000000
                       2.000000  0.000000  0.000000  0.000000  0.000000  0.000000
                       2.000000  0.000000  0.000000  0.000000  0.000000  0.000000
                       2.000000  0.000000  0.000000  0.000000  0.000000  0.000000
                       2.000000  0.000000  0.000000  0.000000  0.000000  0.000000
                       2.000000 -0.000000  0.000000  0.000000  0.000000  0.000000
                       2.000000  2.004727  0.000000  0.000000  0.000000  0.000000
                       2.000000  2.000000  0.000000  0.000000  0.000000  0.000000
                       2.000000  2.000000  0.000000  0.000000  0.000000  0.000000
                       2.000000  2.000000  0.000000  0.000000  0.000000  0.000000
                       2.000000  0.000000  0.000000  0.000000  0.000000  0.000000
                       2.000000  0.000000  0.000000  0.000000  0.000000  0.000000
                       2.000000  0.000000  0.000000  0.000000  0.000000  0.000000
                       2.000000  0.000000  0.000000  0.000000  0.000000  0.000000
                       2.000000  0.000000  0.000000  0.000000  0.000000  0.000000
                       2.000000  0.000000  0.000000  0.000000  0.000000  0.000000
                       2.000000  0.000000  0.000000  0.000000  0.000000  0.000000
                       2.000000  0.000000  0.000000  0.000000  0.000000  0.000000
                       2.000000  0.378372  0.000000  0.000000  0.000000  0.000000
                       2.000000  2.000000  0.000000  0.000000  0.000000  0.000000
                       2.000000  2.000000  0.000000  0.000000  0.000000  0.000000
                       2.000000  2.000000  0.000000  0.000000  0.000000  0.000000
                       2.000000  2.000000  0.000000  0.000000  0.000000  0.000000
                       2.000000  2.000000  0.000000  0.000000  0.000000  0.000000
                       2.000000  2.000000  0.000000  0.000000  0.000000  0.000000
                       2.000000  2.000000  0.000000  0.000000  0.000000  0.000000
                       2.000000 -0.000211  0.000000  0.000000  0.000000  0.000000
                       2.000000  0.000000  0.000000  0.000000  0.000000  0.000000
                       2.000000  0.000000  0.000000  0.000000  0.000000  0.000000
                       2.000000  0.000000  0.000000  0.000000  0.000000  0.000000
                       2.000000  0.000000  0.000000  0.000000  0.000000  0.000000
                       2.000000  0.000000  0.000000  0.000000  0.000000  0.000000
                       2.000000  0.000000  0.000000  0.000000  0.000000  0.000000
                       2.000000  0.000000  0.000000  0.000000  0.000000  0.000000
                       2.000000  0.000000  0.000000  0.000000  0.000000  0.000000
                       2.000000  0.000000  0.000000  0.000000  0.000000  0.000000
                       2.000000  0.000000  0.000000  0.000000  0.000000  0.000000
                       2.000000  0.000000  0.000000  0.000000  0.000000  0.000000
                       2.000000  0.000000  0.000000  0.000000  0.000000  0.000000
                       2.000000  0.000000  0.000000  0.000000  0.000000  0.000000
                       2.000000  0.000000  0.000000  0.000000  0.000000  0.000000
                       2.000000 -0.000006  0.000000  0.000000  0.000000  0.000000
                       2.000000  2.000000  0.000000  0.000000  0.000000  0.000000
                       2.000000  2.000000  0.000000  0.000000  0.000000  0.000000
                       2.000000  2.000000  0.000000  0.000000  0.000000  0.000000
                       2.000000  2.000000  0.000000  0.000000  0.000000  0.000000
                       2.000000  2.000000  0.000000  0.000000  0.000000  0.000000
                       prtocc : prtvol=0, do not print more k-points.
           occopt           6
          optcell           1
           prtden           0
           prtdos           2
        prtposcar           1
            prtwf           0
            rprim      0.0000000000E+00  2.0025000000E+00  2.0025000000E+00
                       2.0025000000E+00  0.0000000000E+00  2.0025000000E+00
                       2.0025000000E+00  2.0025000000E+00  0.0000000000E+00
          spgroup         225
           strten     -1.5423849264E-12 -1.5423851432E-12 -1.5423852516E-12
                       0.0000000000E+00  0.0000000000E+00  0.0000000000E+00
           symrel      1  0  0   0  1  0   0  0  1      -1  0  0   0 -1  0   0  0 -1
                       0 -1  1   0 -1  0   1 -1  0       0  1 -1   0  1  0  -1  1  0
                      -1  0  0  -1  0  1  -1  1  0       1  0  0   1  0 -1   1 -1  0
                       0  1 -1   1  0 -1   0  0 -1       0 -1  1  -1  0  1   0  0  1
                      -1  0  0  -1  1  0  -1  0  1       1  0  0   1 -1  0   1  0 -1
                       0 -1  1   1 -1  0   0 -1  0       0  1 -1  -1  1  0   0  1  0
                       1  0  0   0  0  1   0  1  0      -1  0  0   0  0 -1   0 -1  0
                       0  1 -1   0  0 -1   1  0 -1       0 -1  1   0  0  1  -1  0  1
                      -1  0  1  -1  1  0  -1  0  0       1  0 -1   1 -1  0   1  0  0
                       0 -1  0   1 -1  0   0 -1  1       0  1  0  -1  1  0   0  1 -1
                       1  0 -1   0  0 -1   0  1 -1      -1  0  1   0  0  1   0 -1  1
                       0  1  0   0  0  1   1  0  0       0 -1  0   0  0 -1  -1  0  0
                       1  0 -1   0  1 -1   0  0 -1      -1  0  1   0 -1  1   0  0  1
                       0 -1  0   0 -1  1   1 -1  0       0  1  0   0  1 -1  -1  1  0
                      -1  0  1  -1  0  0  -1  1  0       1  0 -1   1  0  0   1 -1  0
                       0  1  0   1  0  0   0  0  1       0 -1  0  -1  0  0   0  0 -1
                       0  0 -1   0  1 -1   1  0 -1       0  0  1   0 -1  1  -1  0  1
                       1 -1  0   0 -1  1   0 -1  0      -1  1  0   0  1 -1   0  1  0
                       0  0  1   1  0  0   0  1  0       0  0 -1  -1  0  0   0 -1  0
                      -1  1  0  -1  0  0  -1  0  1       1 -1  0   1  0  0   1  0 -1
                       0  0  1   0  1  0   1  0  0       0  0 -1   0 -1  0  -1  0  0
                       1 -1  0   0 -1  0   0 -1  1      -1  1  0   0  1  0   0  1 -1
                       0  0 -1   1  0 -1   0  1 -1       0  0  1  -1  0  1   0 -1  1
                      -1  1  0  -1  0  1  -1  0  0       1 -1  0   1  0 -1   1  0  0
           toldfe      3.67493254E-08 Hartree
           tolmxf      1.00000000E-08
           tsmear      7.34986508E-03 Hartree
            typat      1
          usekden           1
              wtk        0.00006    0.00051    0.00051    0.00051    0.00051    0.00051
                         0.00051    0.00051    0.00051    0.00051    0.00051    0.00051
                         0.00051    0.00038    0.00154    0.00154    0.00154    0.00154
                         0.00154    0.00154    0.00154    0.00154    0.00154    0.00154
                         0.00154    0.00154    0.00154    0.00154    0.00154    0.00154
                         0.00154    0.00154    0.00154    0.00154    0.00154    0.00154
                         0.00077    0.00038    0.00154    0.00154    0.00154    0.00154
                         0.00154    0.00154    0.00154    0.00154    0.00154    0.00154
                         0.00154    0.00154
                       outvars : Printing only first  50 k-points.
            znucl       13.00000

- Timing analysis has been suppressed with timopt=0

 Suggested references for the acknowledgment of ABINIT usage.

 M.A.L. Marques, M.J.T. Oliveira, T. Burnus, Computer Physics Communications 183, 2227 (2012).
 Strong suggestion to cite this paper.

 [2] Ab initio pseudopotentials for electronic structure calculations of poly-atomic systems,
 using density-functional theory.
 M. Fuchs, M. Scheffler, Comput. Phys. Commun. 119, 67 (1999).
 Comment : Some pseudopotential generated using the FHI code were used.

 [3] ABINIT : First-principles approach of materials and nanosystem properties.
 X. Gonze, B. Amadon, P.-M. Anglade, J.-M. Beuken, F. Bottin, P. Boulanger, F. Bruneval,
 D. Caliste, R. Caracas, M. Cote, T. Deutsch, L. Genovese, Ph. Ghosez, M. Giantomassi
 S. Goedecker, D.R. Hamann, P. Hermet, F. Jollet, G. Jomard, S. Leroux, M. Mancini, S. Mazevet,
 M.J.T. Oliveira, G. Onida, Y. Pouillon, T. Rangel, G.-M. Rignanese, D. Sangalli, R. Shaltaf,
 M. Torrent, M.J. Verstraete, G. Zerah, J.W. Zwanziger
 Computer Phys. Comm. 180, 2582-2615 (2009).
 Comment : the third generic paper describing the ABINIT project.
 Note that a version of this paper, that is not formatted for Computer Phys. Comm.
 The licence allows the authors to put it on the Web.

 [4] A brief introduction to the ABINIT software package.
 X. Gonze, G.-M. Rignanese, M. Verstraete, J.-M. Beuken, Y. Pouillon, R. Caracas, F. Jollet,
 M. Torrent, G. Zerah, M. Mikami, Ph. Ghosez, M. Veithen, J.-Y. Raty, V. Olevano, F. Bruneval,
 L. Reining, R. Godby, G. Onida, D.R. Hamann, and D.C. Allan.
 Z. Kristallogr. 220, 558-562 (2005).
 Comment : the second generic paper describing the ABINIT project. Note that this paper
 should be cited especially if you are using the GW part of ABINIT, as several authors
 of this part are not in the list of authors of the first or third paper.
 Note that it should not redistributed (Copyright by Oldenburg Wissenshaftverlag,
 the licence allows the authors to put it on the Web).

 And optionally :

 [5] First-principles computation of material properties : the ABINIT software project.
 X. Gonze, J.-M. Beuken, R. Caracas, F. Detraux, M. Fuchs, G.-M. Rignanese, L. Sindic,
 M. Verstraete, G. Zerah, F. Jollet, M. Torrent, A. Roy, M. Mikami, Ph. Ghosez, J.-Y. Raty, D.C. Allan.
 Comment : the original paper describing the ABINIT project.
-

 Calculation completed.
.Delivered    0 WARNINGs and  11 COMMENTs to log file.