.Version 7.10.5 of ABINIT

 ABINIT is a project of the Universite Catholique de Louvain,
 Corning Inc. and other collaborators, see ~abinit/doc/developers/contributors.txt .
 Please read ~abinit/doc/users/acknowledgments.html for suggested
 acknowledgments of the ABINIT effort.

.Starting date : Thu 21 Jul 2016.
- ( at 18h10 )

- input  file    -> inputs/ir-eos_LDApaw8.in
- output file    -> outputs/ir-eos_LDApaw8.out
- root for input  files -> io_xo/ir-eos_LDApaw8_io
- root for output files -> io_xo/ir-eos_LDApaw8_xo

 DATASET    1 : space group Pm -3 m (#221); Bravais cP (primitive cubic)
   intxc =         0  ionmov =         0    iscf =        17 xclevel =         1
  lmnmax =        18   lnmax =         6   mband =        40  mffmem =         1
P  mgfft =        30   mkmem =         4 mpssoang=         3     mpw =      1390
  mqgrid =      3001   natom =         8    nfft =     27000    nkpt =        56
  nloalg =         4  nspden =         1 nspinor =         1  nsppol =         1
    nsym =        48  n1xccc =         1  ntypat =         3  occopt =         4
Pmy_natom=         1
 PAW method is used; the additional fine FFT grid is defined by:
   mgfftf=        48    nfftf =    110592
  Rough estimation (10% accuracy) of disk space for files :

 DATASET    2 : space group Pm -3 m (#221); Bravais cP (primitive cubic)
   intxc =         0  ionmov =         0    iscf =        -2 xclevel =         1
  lmnmax =        18   lnmax =         6   mband =        40  mffmem =         1
P  mgfft =        30   mkmem =         4 mpssoang=         3     mpw =      1390
  mqgrid =      3001   natom =         8    nfft =     27000    nkpt =        56
  nloalg =         4  nspden =         1 nspinor =         1  nsppol =         1
    nsym =        48  n1xccc =         1  ntypat =         3  occopt =         4
Pmy_natom=         1
 PAW method is used; the additional fine FFT grid is defined by:
   mgfftf=        48    nfftf =    110592
  Rough estimation (10% accuracy) of disk space for files :

 DATASET    4 : space group Pm -3 m (#221); Bravais cP (primitive cubic)
   intxc =         0    iscf =         7 xclevel =         1  lmnmax =        18
   lnmax =         6   mband =        40  mffmem =         1   mgfft =        30
P  mkmem =        54  mkqmem =        54  mk1mem =        54 mpssoang=         3
     mpw =      1390  mqgrid =      3001   natom =         8    nfft =     27000
    nkpt =       864  nloalg =         4  nspden =         1 nspinor =         1
  nsppol =         1    nsym =        48  n1xccc =         1  ntypat =         3
  occopt =         4
Pmy_natom=         1
  Rough estimation (10% accuracy) of disk space for files :

------------- Echo of variables that govern the present computation ------------
-
- outvars: echo of selected default values
-   accesswff0 =  0 , fftalg0 =112 , wfoptalg0 = 10
-
- outvars: echo of global parameters not present in the input file
-  max_nthreads =    0
-
 -outvars: echo values of preprocessed input variables --------
            acell      7.9922501126E+00  7.9922501126E+00  7.9922501126E+00 Bohr
              amu      4.78800000E+01  1.40067400E+01  1.08110000E+01
           diemac      2.00000000E+01
             ecut      1.46997302E+01 Hartree
-          fftalg         112
           getden1          0
           getden2          1
           getden4          0
           getwfk1          0
           getwfk2          1
           getwfk4          2
             iscf1         17
             iscf2         -2
             iscf4          7
              ixc           2
           jdtset        1    2    4
              kpt1     4.16666667E-02  4.16666667E-02  4.16666667E-02
                       1.25000000E-01  4.16666667E-02  4.16666667E-02
                       2.08333333E-01  4.16666667E-02  4.16666667E-02
                       2.91666667E-01  4.16666667E-02  4.16666667E-02
                       3.75000000E-01  4.16666667E-02  4.16666667E-02
                       4.58333333E-01  4.16666667E-02  4.16666667E-02
                       1.25000000E-01  1.25000000E-01  4.16666667E-02
                       2.08333333E-01  1.25000000E-01  4.16666667E-02
                       2.91666667E-01  1.25000000E-01  4.16666667E-02
                       3.75000000E-01  1.25000000E-01  4.16666667E-02
                       4.58333333E-01  1.25000000E-01  4.16666667E-02
                       2.08333333E-01  2.08333333E-01  4.16666667E-02
                       2.91666667E-01  2.08333333E-01  4.16666667E-02
                       3.75000000E-01  2.08333333E-01  4.16666667E-02
                       4.58333333E-01  2.08333333E-01  4.16666667E-02
                       2.91666667E-01  2.91666667E-01  4.16666667E-02
                       3.75000000E-01  2.91666667E-01  4.16666667E-02
                       4.58333333E-01  2.91666667E-01  4.16666667E-02
                       3.75000000E-01  3.75000000E-01  4.16666667E-02
                       4.58333333E-01  3.75000000E-01  4.16666667E-02
                       4.58333333E-01  4.58333333E-01  4.16666667E-02
                       1.25000000E-01  1.25000000E-01  1.25000000E-01
                       2.08333333E-01  1.25000000E-01  1.25000000E-01
                       2.91666667E-01  1.25000000E-01  1.25000000E-01
                       3.75000000E-01  1.25000000E-01  1.25000000E-01
                       4.58333333E-01  1.25000000E-01  1.25000000E-01
                       2.08333333E-01  2.08333333E-01  1.25000000E-01
                       2.91666667E-01  2.08333333E-01  1.25000000E-01
                       3.75000000E-01  2.08333333E-01  1.25000000E-01
                       4.58333333E-01  2.08333333E-01  1.25000000E-01
                       2.91666667E-01  2.91666667E-01  1.25000000E-01
                       3.75000000E-01  2.91666667E-01  1.25000000E-01
                       4.58333333E-01  2.91666667E-01  1.25000000E-01
                       3.75000000E-01  3.75000000E-01  1.25000000E-01
                       4.58333333E-01  3.75000000E-01  1.25000000E-01
                       4.58333333E-01  4.58333333E-01  1.25000000E-01
                       2.08333333E-01  2.08333333E-01  2.08333333E-01
                       2.91666667E-01  2.08333333E-01  2.08333333E-01
                       3.75000000E-01  2.08333333E-01  2.08333333E-01
                       4.58333333E-01  2.08333333E-01  2.08333333E-01
                       2.91666667E-01  2.91666667E-01  2.08333333E-01
                       3.75000000E-01  2.91666667E-01  2.08333333E-01
                       4.58333333E-01  2.91666667E-01  2.08333333E-01
                       3.75000000E-01  3.75000000E-01  2.08333333E-01
                       4.58333333E-01  3.75000000E-01  2.08333333E-01
                       4.58333333E-01  4.58333333E-01  2.08333333E-01
                       2.91666667E-01  2.91666667E-01  2.91666667E-01
                       3.75000000E-01  2.91666667E-01  2.91666667E-01
                       4.58333333E-01  2.91666667E-01  2.91666667E-01
                       3.75000000E-01  3.75000000E-01  2.91666667E-01
              kpt2     4.16666667E-02  4.16666667E-02  4.16666667E-02
                       1.25000000E-01  4.16666667E-02  4.16666667E-02
                       2.08333333E-01  4.16666667E-02  4.16666667E-02
                       2.91666667E-01  4.16666667E-02  4.16666667E-02
                       3.75000000E-01  4.16666667E-02  4.16666667E-02
                       4.58333333E-01  4.16666667E-02  4.16666667E-02
                       1.25000000E-01  1.25000000E-01  4.16666667E-02
                       2.08333333E-01  1.25000000E-01  4.16666667E-02
                       2.91666667E-01  1.25000000E-01  4.16666667E-02
                       3.75000000E-01  1.25000000E-01  4.16666667E-02
                       4.58333333E-01  1.25000000E-01  4.16666667E-02
                       2.08333333E-01  2.08333333E-01  4.16666667E-02
                       2.91666667E-01  2.08333333E-01  4.16666667E-02
                       3.75000000E-01  2.08333333E-01  4.16666667E-02
                       4.58333333E-01  2.08333333E-01  4.16666667E-02
                       2.91666667E-01  2.91666667E-01  4.16666667E-02
                       3.75000000E-01  2.91666667E-01  4.16666667E-02
                       4.58333333E-01  2.91666667E-01  4.16666667E-02
                       3.75000000E-01  3.75000000E-01  4.16666667E-02
                       4.58333333E-01  3.75000000E-01  4.16666667E-02
                       4.58333333E-01  4.58333333E-01  4.16666667E-02
                       1.25000000E-01  1.25000000E-01  1.25000000E-01
                       2.08333333E-01  1.25000000E-01  1.25000000E-01
                       2.91666667E-01  1.25000000E-01  1.25000000E-01
                       3.75000000E-01  1.25000000E-01  1.25000000E-01
                       4.58333333E-01  1.25000000E-01  1.25000000E-01
                       2.08333333E-01  2.08333333E-01  1.25000000E-01
                       2.91666667E-01  2.08333333E-01  1.25000000E-01
                       3.75000000E-01  2.08333333E-01  1.25000000E-01
                       4.58333333E-01  2.08333333E-01  1.25000000E-01
                       2.91666667E-01  2.91666667E-01  1.25000000E-01
                       3.75000000E-01  2.91666667E-01  1.25000000E-01
                       4.58333333E-01  2.91666667E-01  1.25000000E-01
                       3.75000000E-01  3.75000000E-01  1.25000000E-01
                       4.58333333E-01  3.75000000E-01  1.25000000E-01
                       4.58333333E-01  4.58333333E-01  1.25000000E-01
                       2.08333333E-01  2.08333333E-01  2.08333333E-01
                       2.91666667E-01  2.08333333E-01  2.08333333E-01
                       3.75000000E-01  2.08333333E-01  2.08333333E-01
                       4.58333333E-01  2.08333333E-01  2.08333333E-01
                       2.91666667E-01  2.91666667E-01  2.08333333E-01
                       3.75000000E-01  2.91666667E-01  2.08333333E-01
                       4.58333333E-01  2.91666667E-01  2.08333333E-01
                       3.75000000E-01  3.75000000E-01  2.08333333E-01
                       4.58333333E-01  3.75000000E-01  2.08333333E-01
                       4.58333333E-01  4.58333333E-01  2.08333333E-01
                       2.91666667E-01  2.91666667E-01  2.91666667E-01
                       3.75000000E-01  2.91666667E-01  2.91666667E-01
                       4.58333333E-01  2.91666667E-01  2.91666667E-01
                       3.75000000E-01  3.75000000E-01  2.91666667E-01
              kpt4     4.16666667E-02  4.16666667E-02  4.16666667E-02
                       1.25000000E-01  4.16666667E-02  4.16666667E-02
                       2.08333333E-01  4.16666667E-02  4.16666667E-02
                       2.91666667E-01  4.16666667E-02  4.16666667E-02
                       3.75000000E-01  4.16666667E-02  4.16666667E-02
                       4.58333333E-01  4.16666667E-02  4.16666667E-02
                      -4.58333333E-01  4.16666667E-02  4.16666667E-02
                      -3.75000000E-01  4.16666667E-02  4.16666667E-02
[...]
              occ4     2.000000  2.000000  2.000000  2.000000  2.000000  2.000000
                       2.000000  2.000000  2.000000  2.000000  2.000000  2.000000
                       2.000000  2.000000  2.000000  2.000000  2.000000  2.000000
                       2.000000  2.000000  2.000000  2.000000  2.000000  2.000951
                       2.000951  2.003391  2.003752  2.015537  2.015537  2.034677
                       2.034677  2.041912  1.123795  1.025878  1.025878  0.038725
                       0.038725  0.002917  0.002917  0.004067
                       2.000000  2.000000  2.000000  2.000000  2.000000  2.000000
                       2.000000  2.000000  2.000000  2.000000  2.000000  2.000000
                       2.000000  2.000000  2.000000  2.000000  2.000000  2.000000
                       2.000000  2.000000  2.000000  2.000000  2.000000  2.000118
                       2.000165  2.001002  2.002520  2.004511  2.011091  2.032799
                       2.086344  2.092059  1.269725  0.995754  0.986387  0.578503
                       0.023191  0.003764  0.004623  0.005238
                       2.000000  2.000000  2.000000  2.000000  2.000000  2.000000
                       2.000000  2.000000  2.000000  2.000000  2.000000  2.000000
                       2.000000  2.000000  2.000000  2.000000  2.000000  2.000000
                       2.000000  2.000000  2.000000  2.000000  2.000000  2.000009
                       2.000017  2.000089  2.000135  2.002819  2.007339  2.033601
                       2.140195  2.141801  1.883861  1.494242  0.833471  0.746282
                       0.007881  0.004754  0.005170  0.003441
                       2.000000  2.000000  2.000000  2.000000  2.000000  2.000000
                       2.000000  2.000000  2.000000  2.000000  2.000000  2.000000
                       2.000000  2.000000  2.000000  2.000000  2.000000  2.000000
                       2.000000  2.000000  2.000000  2.000000  2.000000  2.000000
                       2.000001  2.000004  2.000007  2.002352  2.004705  2.042797
                       2.122317  2.120690  2.108741  1.731248  0.424189  0.377043
                       0.001016  0.005183  0.005214  0.004048
                       2.000000  2.000000  2.000000  2.000000  2.000000  2.000000
                       2.000000  2.000000  2.000000  2.000000  2.000000  2.000000
                       2.000000  2.000000  2.000000  2.000000  2.000000  2.000000
                       2.000000  2.000000  2.000000  2.000000  2.000000  2.000000
                       2.000000  2.000001  2.000001  2.001803  2.003123  2.033040
                       2.067348  2.134512  2.081378  1.867128  0.074431  0.064398
                       0.000091  0.005158  0.005225  0.004821
                       2.000000  2.000000  2.000000  2.000000  2.000000  2.000000
                       2.000000  2.000000  2.000000  2.000000  2.000000  2.000000
                       2.000000  2.000000  2.000000  2.000000  2.000000  2.000000
                       2.000000  2.000000  2.000000  2.000000  2.000000  2.000000
                       2.000000  2.000000  2.000000  2.001419  2.002506  2.010380
                       2.104140  2.137692  2.077256  1.914018  0.000368  0.000144
                       0.001003  0.004024  0.004324  0.005254
                       2.000000  2.000000  2.000000  2.000000  2.000000  2.000000
                       2.000000  2.000000  2.000000  2.000000  2.000000  2.000000
                       2.000000  2.000000  2.000000  2.000000  2.000000  2.000000
                       2.000000  2.000000  2.000000  2.000000  2.000000  2.000000
                       2.000000  2.000000  2.000000  2.001419  2.002506  2.010380
                       2.104140  2.137692  2.077256  1.914018  0.000368  0.000144
                       0.001003  0.004024  0.004324  0.005254
                       2.000000  2.000000  2.000000  2.000000  2.000000  2.000000
                       2.000000  2.000000  2.000000  2.000000  2.000000  2.000000
                       2.000000  2.000000  2.000000  2.000000  2.000000  2.000000
                       2.000000  2.000000  2.000000  2.000000  2.000000  2.000000
                       2.000000  2.000001  2.000001  2.001803  2.003123  2.033040
                       2.067348  2.134512  2.081378  1.867128  0.074431  0.064398
                       0.000091  0.005158  0.005225  0.004821
                       2.000000  2.000000  2.000000  2.000000  2.000000  2.000000
                       2.000000  2.000000  2.000000  2.000000  2.000000  2.000000
                       2.000000  2.000000  2.000000  2.000000  2.000000  2.000000
                       2.000000  2.000000  2.000000  2.000000  2.000000  2.000000
                       2.000001  2.000004  2.000007  2.002352  2.004705  2.042797
[...]
                       0.001016  0.005183  0.005214  0.004048
                       2.000000  2.000000  2.000000  2.000000  2.000000  2.000000
                       2.000000  2.000000  2.000000  2.000000  2.000000  2.000000
                       2.000000  2.000000  2.000000  2.000000  2.000000  2.000000
                       2.000000  2.000000  2.000000  2.000000  2.000000  2.000000
                       2.000000  2.000001  2.000001  2.001803  2.003123  2.033040
                       2.067348  2.134512  2.081378  1.867128  0.074431  0.064398
                       0.000091  0.005158  0.005225  0.004821
                       2.000000  2.000000  2.000000  2.000000  2.000000  2.000000
                       2.000000  2.000000  2.000000  2.000000  2.000000  2.000000
                       2.000000  2.000000  2.000000  2.000000  2.000000  2.000000
                       2.000000  2.000000  2.000000  2.000000  2.000000  2.000000
                       2.000000  2.000001  2.000002  2.000233  2.000709  2.029135
                       2.069000  2.139038  2.107920  1.326124  0.083601  0.057386
                       0.001287  0.005260  0.005202  0.003504
                       prtocc : prtvol=0, do not print more k-points.
           occopt           4
        optdriver1          0
        optdriver2          0
        optdriver4          1
        optforces           1
        pawecutdg      4.40991905E+01 Hartree
           prtden1          1
           prtden2          1
           prtden4          0
           prteig           0
            prtwf1          1
            prtwf2          1
            prtwf4          0
          rfatpol           1       8
            rfdir           1       1       1
           rfphon1          0
           rfphon2          0
           rfphon4          1
           shiftk      5.00000000E-01  5.00000000E-01  5.00000000E-01
          spgroup         221
           strten1     2.7585489514E-04  2.7585489514E-04  2.7585489514E-04
                       0.0000000000E+00  0.0000000000E+00  0.0000000000E+00
           strten4     0.0000000000E+00  0.0000000000E+00  0.0000000000E+00
                       0.0000000000E+00  0.0000000000E+00  0.0000000000E+00
           symrel      1  0  0   0  1  0   0  0  1      -1  0  0   0 -1  0   0  0 -1
                      -1  0  0   0  1  0   0  0 -1       1  0  0   0 -1  0   0  0  1
                      -1  0  0   0 -1  0   0  0  1       1  0  0   0  1  0   0  0 -1
                       1  0  0   0 -1  0   0  0 -1      -1  0  0   0  1  0   0  0  1
                       0  1  0   1  0  0   0  0  1       0 -1  0  -1  0  0   0  0 -1
                       0 -1  0   1  0  0   0  0 -1       0  1  0  -1  0  0   0  0  1
                       0 -1  0  -1  0  0   0  0  1       0  1  0   1  0  0   0  0 -1
                       0  1  0  -1  0  0   0  0 -1       0 -1  0   1  0  0   0  0  1
                       0  0  1   1  0  0   0  1  0       0  0 -1  -1  0  0   0 -1  0
                       0  0 -1   1  0  0   0 -1  0       0  0  1  -1  0  0   0  1  0
                       0  0 -1  -1  0  0   0  1  0       0  0  1   1  0  0   0 -1  0
                       0  0  1  -1  0  0   0 -1  0       0  0 -1   1  0  0   0  1  0
                       1  0  0   0  0  1   0  1  0      -1  0  0   0  0 -1   0 -1  0
                      -1  0  0   0  0  1   0 -1  0       1  0  0   0  0 -1   0  1  0
                      -1  0  0   0  0 -1   0  1  0       1  0  0   0  0  1   0 -1  0
                       1  0  0   0  0 -1   0 -1  0      -1  0  0   0  0  1   0  1  0
                       0  1  0   0  0  1   1  0  0       0 -1  0   0  0 -1  -1  0  0
                       0 -1  0   0  0  1  -1  0  0       0  1  0   0  0 -1   1  0  0
                       0 -1  0   0  0 -1   1  0  0       0  1  0   0  0  1  -1  0  0
                       0  1  0   0  0 -1  -1  0  0       0 -1  0   0  0  1   1  0  0
                       0  0  1   0  1  0   1  0  0       0  0 -1   0 -1  0  -1  0  0
                       0  0 -1   0  1  0  -1  0  0       0  0  1   0 -1  0   1  0  0
                       0  0 -1   0 -1  0   1  0  0       0  0  1   0  1  0  -1  0  0
                       0  0  1   0 -1  0  -1  0  0       0  0 -1   0  1  0   1  0  0
           toldfe1     2.93994603E-09 Hartree
           toldfe2     0.00000000E+00 Hartree
           toldfe4     0.00000000E+00 Hartree
           tolvrs1     0.00000000E+00
           tolvrs2     0.00000000E+00
           tolvrs4     1.00000000E-02
           tolwfr1     0.00000000E+00
           tolwfr2     1.00000000E-08
           tolwfr4     0.00000000E+00
            typat      1  1  1  1  3  2  2  2
           useylm           1
              wtk1       0.00463    0.01389    0.01389    0.01389    0.01389    0.01389
                         0.01389    0.02778    0.02778    0.02778    0.02778    0.01389
                         0.02778    0.02778    0.02778    0.01389    0.02778    0.02778
                         0.01389    0.02778    0.01389    0.00463    0.01389    0.01389
                         0.01389    0.01389    0.01389    0.02778    0.02778    0.02778
                         0.01389    0.02778    0.02778    0.01389    0.02778    0.01389
                         0.00463    0.01389    0.01389    0.01389    0.01389    0.02778
                         0.02778    0.01389    0.02778    0.01389    0.00463    0.01389
                         0.01389    0.01389
              wtk2       0.00463    0.01389    0.01389    0.01389    0.01389    0.01389
                         0.01389    0.02778    0.02778    0.02778    0.02778    0.01389
                         0.02778    0.02778    0.02778    0.01389    0.02778    0.02778
                         0.01389    0.02778    0.01389    0.00463    0.01389    0.01389
                         0.01389    0.01389    0.01389    0.02778    0.02778    0.02778
                         0.01389    0.02778    0.02778    0.01389    0.02778    0.01389
                         0.00463    0.01389    0.01389    0.01389    0.01389    0.02778
                         0.02778    0.01389    0.02778    0.01389    0.00463    0.01389
                         0.01389    0.01389
              wtk4       0.00116    0.00116    0.00116    0.00116    0.00116    0.00116
                         0.00116    0.00116    0.00116    0.00116    0.00116    0.00116
                         0.00116    0.00116    0.00116    0.00116    0.00116    0.00116
                         0.00116    0.00116    0.00116    0.00116    0.00116    0.00116
                         0.00116    0.00116    0.00116    0.00116    0.00116    0.00116
                         0.00116    0.00116    0.00116    0.00116    0.00116    0.00116
                         0.00116    0.00116    0.00116    0.00116    0.00116    0.00116
                         0.00116    0.00116    0.00116    0.00116    0.00116    0.00116
                         0.00116    0.00116
                       outvars : Printing only first  50 k-points.
           xangst      0.0000000000E+00  0.0000000000E+00  0.0000000000E+00
                       0.0000000000E+00  2.1146583025E+00  2.1146583025E+00
                       2.1146583025E+00  0.0000000000E+00  2.1146583025E+00
                       2.1146583025E+00  2.1146583025E+00  0.0000000000E+00
                       2.1146583025E+00  2.1146583025E+00  2.1146583025E+00
                       2.1146583025E+00  0.0000000000E+00  0.0000000000E+00
                       0.0000000000E+00  2.1146583025E+00  0.0000000000E+00
                       0.0000000000E+00  0.0000000000E+00  2.1146583025E+00
            xcart      0.0000000000E+00  0.0000000000E+00  0.0000000000E+00
                       0.0000000000E+00  3.9961250563E+00  3.9961250563E+00
                       3.9961250563E+00  0.0000000000E+00  3.9961250563E+00
                       3.9961250563E+00  3.9961250563E+00  0.0000000000E+00
                       3.9961250563E+00  3.9961250563E+00  3.9961250563E+00
                       3.9961250563E+00  0.0000000000E+00  0.0000000000E+00
                       0.0000000000E+00  3.9961250563E+00  0.0000000000E+00
                       0.0000000000E+00  0.0000000000E+00  3.9961250563E+00
             xred      0.0000000000E+00  0.0000000000E+00  0.0000000000E+00
                       0.0000000000E+00  5.0000000000E-01  5.0000000000E-01
                       5.0000000000E-01  0.0000000000E+00  5.0000000000E-01
                       5.0000000000E-01  5.0000000000E-01  0.0000000000E+00
                       5.0000000000E-01  5.0000000000E-01  5.0000000000E-01
                       5.0000000000E-01  0.0000000000E+00  0.0000000000E+00
                       0.0000000000E+00  5.0000000000E-01  0.0000000000E+00
                       0.0000000000E+00  0.0000000000E+00  5.0000000000E-01
            znucl       22.00000    7.00000    5.00000

- Timing analysis has been suppressed with timopt=0

 Suggested references for the acknowledgment of ABINIT usage.

 [1] Implementation of the Projector Augmented-Wave Method in the ABINIT code.
 M. Torrent, F. Jollet, F. Bottin, G. Zerah, and X. Gonze Comput. Mat. Science 42, 337, (2008).
 Comment : PAW calculations. Strong suggestion to cite this paper.

 [2] Projector augmented-wave approach to density-functional perturbation theory.
 C. Audouze, F. Jollet, M. Torrent and X. Gonze, Phys. Rev. B 73, 235101 (2006).
 Comparison between projector augmented-wave and ultrasoft pseudopotential formalisms
 at the density-functional perturbation theory level.
 C. Audouze, F. Jollet, M. Torrent and X. Gonze, Phys. Rev. B 78, 035105 (2008).
 Comment : to be cited in case the computation of response function with PAW, i.e. (rfphon=1 or rfelfd=1) and usepaw=1.
 Strong suggestion to cite these papers.

 [3] First-principles responses of solids to atomic displacements and homogeneous electric fields:,
 implementation of a conjugate-gradient algorithm. X. Gonze, Phys. Rev. B55, 10337 (1997).
 Comment : Non-vanishing rfphon and/or rfelfd, in the norm-conserving case.

 [4] Dynamical matrices, Born effective charges, dielectric permittivity tensors, and ,
 interatomic force constants from density-functional perturbation theory,
 X. Gonze and C. Lee, Phys. Rev. B55, 10355 (1997).
 Comment : Non-vanishing rfphon and/or rfelfd, in the norm-conserving case.

 [5] ABINIT : First-principles approach of materials and nanosystem properties.
 X. Gonze, B. Amadon, P.-M. Anglade, J.-M. Beuken, F. Bottin, P. Boulanger, F. Bruneval,
 D. Caliste, R. Caracas, M. Cote, T. Deutsch, L. Genovese, Ph. Ghosez, M. Giantomassi
 S. Goedecker, D.R. Hamann, P. Hermet, F. Jollet, G. Jomard, S. Leroux, M. Mancini, S. Mazevet,
 M.J.T. Oliveira, G. Onida, Y. Pouillon, T. Rangel, G.-M. Rignanese, D. Sangalli, R. Shaltaf,
 M. Torrent, M.J. Verstraete, G. Zerah, J.W. Zwanziger
 Computer Phys. Comm. 180, 2582-2615 (2009).
 Comment : the third generic paper describing the ABINIT project.
 Note that a version of this paper, that is not formatted for Computer Phys. Comm.
 The licence allows the authors to put it on the Web.

 [6] A brief introduction to the ABINIT software package.
 X. Gonze, G.-M. Rignanese, M. Verstraete, J.-M. Beuken, Y. Pouillon, R. Caracas, F. Jollet,
 M. Torrent, G. Zerah, M. Mikami, Ph. Ghosez, M. Veithen, J.-Y. Raty, V. Olevano, F. Bruneval,
 L. Reining, R. Godby, G. Onida, D.R. Hamann, and D.C. Allan.
 Z. Kristallogr. 220, 558-562 (2005).
 Comment : the second generic paper describing the ABINIT project. Note that this paper
 should be cited especially if you are using the GW part of ABINIT, as several authors
 of this part are not in the list of authors of the first or third paper.
 Note that it should not redistributed (Copyright by Oldenburg Wissenshaftverlag,
 the licence allows the authors to put it on the Web).
-

 Calculation completed.
.Delivered    0 WARNINGs and   0 COMMENTs to log file.