.Version 5.6.2  of ABINIT
.(sequential version, prepared for a x86_64_linux_intel11.0 computer)

 ABINIT is a project of the Universite Catholique de Louvain,
 Corning Inc. and other collaborators, see ~abinit/doc/developers/contributors.txt .
 Please read ~abinit/doc/users/acknowledgments.html for suggested
 acknowledgments of the ABINIT effort.

.Starting date : Sat 12 Jun 2010.

 herald :  WARNING -
  The starting date is more than 18 months after the initial release
  of this version of ABINIT, namely Sep 2008.
  Action : please, switch to a more recent version of ABINIT.
  Note that the use beyond two years after the release will not be tolerated.

- input  file    -> tgw2_1.in
- output file    -> tgw2_1.outB
- root for input  files -> tgw2i
- root for output files -> tgw2o

 Magnetic group, Shubnikov type III
 Fedorov space group Pc a 2_1 (# 29); Bravais mP (primitive monocl.)
 Magnetic point group m'm2' (#  9)
   intxc =         0  ionmov =         0    iscf =         5 xclevel =         2
  lmnmax =         4   lnmax =         4   mband =       100  mffmem =         1
P  mgfft =        72   mkmem =         5 mpssoang=         4     mpw =      3627
  mqgrid =      3001   natom =        28    nfft =     64800    nkpt =         5
  nloalg =         4  nspden =         2 nspinor =         1  nsppol =         1
    nsym =         4  n1xccc =      2501  ntypat =         3  occopt =         3
  Rough estimation (10% accuracy) of disk space for files :

 -outvars: echo values of preprocessed input variables --------
     acell    1.0212836000E+01  1.0375352000E+01  2.2583550000E+01 Bohr
       amu    1.01070000E+02  1.59994000E+01  4.00780000E+01
      ecut    1.00000000E+01 Hartree
    enunit         1
      iscf         5
    istwfk      1    0    0    0    1
       ixc        11
       kpt    0.00000000E+00  0.00000000E+00  0.00000000E+00
              1.25000000E-01  0.00000000E+00  0.00000000E+00
              2.50000000E-01  0.00000000E+00  0.00000000E+00
              3.75000000E-01  0.00000000E+00  0.00000000E+00
              5.00000000E-01  0.00000000E+00  0.00000000E+00
   kptrlen    1.03753520E+01
    kptopt         1
  kptrlatt    4  0  0   0  1  0   0  0  1
P    mkmem         5
     natom        28
     nband       100
     ngfft        30      30      72
      nkpt         5
   nshiftk         4
    nspden         2
      nsym         4
    ntypat         3
       occ    2.000000  2.000000  2.000000  2.000000  2.000000  2.000000
              2.000000  2.000000  2.000000  2.000000  2.000000  2.000000
              2.000000  2.000000  2.000000  2.000000  2.000000  2.000000
              2.000000  2.000000  2.000000  2.000000  2.000000  2.000000
              2.000000  2.000000  2.000000  2.000000  2.000000  2.000000
              2.000000  2.000000  2.000000  2.000000  2.000000  2.000000
              2.000000  2.000000  2.000000  2.000000  2.000000  2.000000
              2.000000  2.000000  2.000000  2.000000  2.000000  2.000000
              2.000000  2.000000  2.000000  2.000000  2.000000  2.000000
              2.000000  2.000000  2.000000  2.000000  2.000000  2.000000
              2.000000  2.000000  2.000000  2.000000  2.000000  2.000000
              2.000000  2.000000  2.000000  2.000000  2.000000  2.000000
              0.000000  0.000000  0.000000  0.000000  0.000000  0.000000
              0.000000  0.000000  0.000000  0.000000  0.000000  0.000000
              0.000000  0.000000  0.000000  0.000000  0.000000  0.000000
              0.000000  0.000000  0.000000  0.000000  0.000000  0.000000
              0.000000  0.000000  0.000000  0.000000
              2.000000  2.000000  2.000000  2.000000  2.000000  2.000000
              2.000000  2.000000  2.000000  2.000000  2.000000  2.000000
              2.000000  2.000000  2.000000  2.000000  2.000000  2.000000
              2.000000  2.000000  2.000000  2.000000  2.000000  2.000000
              2.000000  2.000000  2.000000  2.000000  2.000000  2.000000
              2.000000  2.000000  2.000000  2.000000  2.000000  2.000000
              2.000000  2.000000  2.000000  2.000000  2.000000  2.000000
              2.000000  2.000000  2.000000  2.000000  2.000000  2.000000
              2.000000  2.000000  2.000000  2.000000  2.000000  2.000000
              2.000000  2.000000  2.000000  2.000000  2.000000  2.000000
              2.000000  2.000000  2.000000  2.000000  2.000000  2.000000
              2.000000  2.000000  2.000000  2.000000  2.000000  2.000000
              0.000000  0.000000  0.000000  0.000000  0.000000  0.000000
              0.000000  0.000000  0.000000  0.000000  0.000000  0.000000
              0.000000  0.000000  0.000000  0.000000  0.000000  0.000000
              0.000000  0.000000  0.000000  0.000000  0.000000  0.000000
              0.000000  0.000000  0.000000  0.000000
              2.000000  2.000000  2.000000  2.000000  2.000000  2.000000
              2.000000  2.000000  2.000000  2.000000  2.000000  2.000000
              2.000000  2.000000  2.000000  2.000000  2.000000  2.000000
              2.000000  2.000000  2.000000  2.000000  2.000000  2.000000
              2.000000  2.000000  2.000000  2.000000  2.000000  2.000000
              2.000000  2.000000  2.000000  2.000000  2.000000  2.000000
              2.000000  2.000000  2.000000  2.000000  2.000000  2.000000
              2.000000  2.000000  2.000000  2.000000  2.000000  2.000000
              2.000000  2.000000  2.000000  2.000000  2.000000  2.000000
              2.000000  2.000000  2.000000  2.000000  2.000000  2.000000
              2.000000  2.000000  2.000000  2.000000  2.000000  2.000000
              2.000000  2.000000  2.000000  2.000000  2.000000  2.000000
              0.000000  0.000000  0.000000  0.000000  0.000000  0.000000
              0.000000  0.000000  0.000000  0.000000  0.000000  0.000000
              0.000000  0.000000  0.000000  0.000000  0.000000  0.000000
              0.000000  0.000000  0.000000  0.000000  0.000000  0.000000
              0.000000  0.000000  0.000000  0.000000
              2.000000  2.000000  2.000000  2.000000  2.000000  2.000000
              2.000000  2.000000  2.000000  2.000000  2.000000  2.000000
              2.000000  2.000000  2.000000  2.000000  2.000000  2.000000
              2.000000  2.000000  2.000000  2.000000  2.000000  2.000000
              2.000000  2.000000  2.000000  2.000000  2.000000  2.000000
              2.000000  2.000000  2.000000  2.000000  2.000000  2.000000
              2.000000  2.000000  2.000000  2.000000  2.000000  2.000000
              2.000000  2.000000  2.000000  2.000000  2.000000  2.000000
              2.000000  2.000000  2.000000  2.000000  2.000000  2.000000
              2.000000  2.000000  2.000000  2.000000  2.000000  2.000000
[...]
              2.000000  2.000000  2.000000  2.000000  2.000000  2.000000
              2.000000  2.000000  2.000000  2.000000  2.000000  2.000000
              2.000000  2.000000  2.000000  2.000000  2.000000  2.000000
              2.000000  2.000000  2.000000  2.000000  2.000000  2.000000
              2.000000  2.000000  2.000000  2.000000  2.000000  2.000000
              2.000000  2.000000  2.000000  2.000000  2.000000  2.000000
              2.000000  2.000000  2.000000  2.000000  2.000000  2.000000
              2.000000  2.000000  2.000000  2.000000  2.000000  2.000000
              2.000000  2.000000  2.000000  2.000000  2.000000  2.000000
              2.000000  2.000000  2.000000  2.000000  2.000000  2.000000
              0.000000  0.000000  0.000000  0.000000  0.000000  0.000000
              0.000000  0.000000  0.000000  0.000000  0.000000  0.000000
              0.000000  0.000000  0.000000  0.000000  0.000000  0.000000
              0.000000  0.000000  0.000000  0.000000  0.000000  0.000000
              0.000000  0.000000  0.000000  0.000000
    occopt         3
 prtdensph         1
    prtvol         5
     prtwf         0
 ptgroupma         9
    shiftk    0.00000000E+00  0.00000000E+00  0.00000000E+00
              0.00000000E+00  0.00000000E+00  0.00000000E+00
              5.00000000E-01  0.00000000E+00  0.00000000E+00
              0.00000000E+00  0.00000000E+00  0.00000000E+00
   spgroup        29
    spinat    0.0000000000E+00  0.0000000000E+00  4.0000000000E+00
              0.0000000000E+00  0.0000000000E+00 -4.0000000000E+00
              0.0000000000E+00  0.0000000000E+00  4.0000000000E+00
              0.0000000000E+00  0.0000000000E+00 -4.0000000000E+00
              0.0000000000E+00  0.0000000000E+00  1.0000000000E+00
              0.0000000000E+00  0.0000000000E+00 -1.0000000000E+00
              0.0000000000E+00  0.0000000000E+00  1.0000000000E+00
              0.0000000000E+00  0.0000000000E+00 -1.0000000000E+00
              0.0000000000E+00  0.0000000000E+00  1.0000000000E+00
              0.0000000000E+00  0.0000000000E+00 -1.0000000000E+00
              0.0000000000E+00  0.0000000000E+00  1.0000000000E+00
              0.0000000000E+00  0.0000000000E+00 -1.0000000000E+00
              0.0000000000E+00  0.0000000000E+00  1.0000000000E+00
              0.0000000000E+00  0.0000000000E+00 -1.0000000000E+00
              0.0000000000E+00  0.0000000000E+00  1.0000000000E+00
              0.0000000000E+00  0.0000000000E+00 -1.0000000000E+00
              0.0000000000E+00  0.0000000000E+00  1.0000000000E+00
              0.0000000000E+00  0.0000000000E+00 -1.0000000000E+00
              0.0000000000E+00  0.0000000000E+00  1.0000000000E+00
              0.0000000000E+00  0.0000000000E+00 -1.0000000000E+00
              0.0000000000E+00  0.0000000000E+00  1.0000000000E+00
              0.0000000000E+00  0.0000000000E+00 -1.0000000000E+00
              0.0000000000E+00  0.0000000000E+00  1.0000000000E+00
              0.0000000000E+00  0.0000000000E+00 -1.0000000000E+00
              0.0000000000E+00  0.0000000000E+00  1.0000000000E+00
              0.0000000000E+00  0.0000000000E+00 -1.0000000000E+00
              0.0000000000E+00  0.0000000000E+00  1.0000000000E+00
              0.0000000000E+00  0.0000000000E+00 -1.0000000000E+00
    symafm    1 -1 -1   1
    symrel    1  0  0   0  1  0   0  0  1       1  0  0   0 -1  0   0  0  1
             -1  0  0   0 -1  0   0  0  1      -1  0  0   0  1  0   0  0  1
     tnons    0.0000000  0.0000000  0.0000000     0.0000000  0.5000000  0.5000000
              0.5000000  0.0000000  0.5000000     0.5000000  0.5000000  0.0000000
    toldfe    1.00000000E-07 Hartree
    tsmear    1.00000000E-03 Hartree
     typat    1  1  1  1  2  2  2  2  2  2  2  2  2  2  2  2  2  2  2  2
              3  3  3  3  3  3  3  3
       wtk      0.18750    0.12500    0.37500    0.12500    0.18750
    xangst    2.7022000231E+00  0.0000000000E+00  5.9753499745E+00
              0.0000000000E+00  0.0000000000E+00  0.0000000000E+00
              0.0000000000E+00  2.7451999047E+00  5.9753499745E+00
              2.7022000231E+00  2.7451999047E+00  0.0000000000E+00
              3.7576793522E+00  1.6635911423E+00  5.6837528958E+00
              1.6467206941E+00  3.8268086672E+00  6.2669470533E+00
              1.0554793290E+00  1.6635911423E+00  2.9159707876E-01
[...]
              7.6329223536E-03  1.8109435963E-03  9.8103305287E-03
             -7.6190064453E-03 -1.7974465699E-03 -9.6606806696E-03
              7.6190064453E-03  1.7974465699E-03 -9.6606806696E-03
             -7.6329223536E-03 -1.8109435963E-03  9.8103305287E-03
             -7.6329223536E-03  1.8109435963E-03  9.8103305287E-03
              7.6190064453E-03 -1.7974465699E-03 -9.6606806696E-03
             -7.6190064453E-03  1.7974465699E-03 -9.6606806696E-03
              7.6329223536E-03 -1.8109435963E-03  9.8103305287E-03
             -1.5263362238E-02  8.3070015906E-03 -2.0533850200E-02
              1.5164709121E-02 -8.3371495914E-03  2.0631029103E-02
             -1.5164709121E-02  8.3371495914E-03  2.0631029103E-02
              1.5263362238E-02 -8.3070015906E-03 -2.0533850200E-02
              1.5263362238E-02  8.3070015906E-03 -2.0533850200E-02
             -1.5164709121E-02 -8.3371495914E-03  2.0631029103E-02
              1.5164709121E-02  8.3371495914E-03  2.0631029103E-02
             -1.5263362238E-02 -8.3070015906E-03 -2.0533850200E-02
      iscf         5
    istwfk      1    0    0    0    1
       ixc        11
       kpt    0.00000000E+00  0.00000000E+00  0.00000000E+00
              1.25000000E-01  0.00000000E+00  0.00000000E+00
              2.50000000E-01  0.00000000E+00  0.00000000E+00
              3.75000000E-01  0.00000000E+00  0.00000000E+00
              5.00000000E-01  0.00000000E+00  0.00000000E+00
   kptrlen    1.03753520E+01
    kptopt         1
  kptrlatt    4  0  0   0  1  0   0  0  1
P    mkmem         5
     natom        28
     nband       100
     ngfft        30      30      72
      nkpt         5
   nshiftk         4
    nspden         2
      nsym         4
    ntypat         3
       occ    2.000000  2.000000  2.000000  2.000000  2.000000  2.000000
              2.000000  2.000000  2.000000  2.000000  2.000000  2.000000
              2.000000  2.000000  2.000000  2.000000  2.000000  2.000000
              2.000000  2.000000  2.000000  2.000000  2.000000  2.000000
              2.000000  2.000000  2.000000  2.000000  2.000000  2.000000
              2.000000  2.000000  2.000000  2.000000  2.000000  2.000000
              2.000000  2.000000  2.000000  2.000000  2.000000  2.000000
              2.000000  2.000000  2.000000  2.000000  2.000000  2.000000
              2.000000  2.000000  2.000000  2.000000  2.000000  2.000000
              2.000000  2.000000  2.000000  2.000000  2.000000  2.000000
              2.000000  2.000000  2.000000  2.000000  2.000000  2.000000
              2.000000  2.000000  2.000000  2.000000  2.000000  2.000000
              0.000029  0.000000  0.000000  0.000000  0.000000  0.000000
              0.000000  0.000000  0.000000  0.000000  0.000000  0.000000
              0.000000  0.000000  0.000000  0.000000  0.000000  0.000000
              0.000000  0.000000  0.000000  0.000000  0.000000  0.000000
              0.000000  0.000000  0.000000  0.000000
              2.000000  2.000000  2.000000  2.000000  2.000000  2.000000
              2.000000  2.000000  2.000000  2.000000  2.000000  2.000000
              2.000000  2.000000  2.000000  2.000000  2.000000  2.000000
              2.000000  2.000000  2.000000  2.000000  2.000000  2.000000
              2.000000  2.000000  2.000000  2.000000  2.000000  2.000000
              2.000000  2.000000  2.000000  2.000000  2.000000  2.000000
              2.000000  2.000000  2.000000  2.000000  2.000000  2.000000
              2.000000  2.000000  2.000000  2.000000  2.000000  2.000000
              2.000000  2.000000  2.000000  2.000000  2.000000  2.000000
              2.000000  2.000000  2.000000  2.000000  2.000000  2.000000
              2.000000  2.000000  2.000000  2.000000  2.000000  2.000000
              2.000000  2.000000  2.000000  2.000000  2.000000  2.000000
              0.000014  0.000000  0.000000  0.000000  0.000000  0.000000
              0.000000  0.000000  0.000000  0.000000  0.000000  0.000000
              0.000000  0.000000  0.000000  0.000000  0.000000  0.000000
              0.000000  0.000000  0.000000  0.000000  0.000000  0.000000
              0.000000  0.000000  0.000000  0.000000
              2.000000  2.000000  2.000000  2.000000  2.000000  2.000000
              2.000000  2.000000  2.000000  2.000000  2.000000  2.000000
              2.000000  2.000000  2.000000  2.000000  2.000000  2.000000
              2.000000  2.000000  2.000000  2.000000  2.000000  2.000000
              2.000000  2.000000  2.000000  2.000000  2.000000  2.000000
              2.000000  2.000000  2.000000  2.000000  2.000000  2.000000
              2.000000  2.000000  2.000000  2.000000  2.000000  2.000000
              2.000000  2.000000  2.000000  2.000000  2.000000  2.000000
              2.000000  2.000000  2.000000  2.000000  2.000000  2.000000
              2.000000  2.000000  2.000000  2.000000  2.000000  2.000000
              2.000000  2.000000  2.000000  2.000000  2.000000  2.000000
              2.000000  2.000000  2.000000  2.000000  2.000000  1.999987
              0.000001  0.000000  0.000000  0.000000  0.000000  0.000000
              0.000000  0.000000  0.000000  0.000000  0.000000  0.000000
              0.000000  0.000000  0.000000  0.000000  0.000000  0.000000
              0.000000  0.000000  0.000000  0.000000  0.000000  0.000000
              0.000000  0.000000  0.000000  0.000000
              2.000000  2.000000  2.000000  2.000000  2.000000  2.000000
              2.000000  2.000000  2.000000  2.000000  2.000000  2.000000
              2.000000  2.000000  2.000000  2.000000  2.000000  2.000000
              2.000000  2.000000  2.000000  2.000000  2.000000  2.000000
              2.000000  2.000000  2.000000  2.000000  2.000000  2.000000
              2.000000  2.000000  2.000000  2.000000  2.000000  2.000000
              2.000000  2.000000  2.000000  2.000000  2.000000  2.000000
              2.000000  2.000000  2.000000  2.000000  2.000000  2.000000
              2.000000  2.000000  2.000000  2.000000  2.000000  2.000000
              2.000000  2.000000  2.000000  2.000000  2.000000  2.000000
[...]
              2.000000  2.000000  2.000000  2.000000  2.000000  2.000000
              2.000000  2.000000  2.000000  2.000000  2.000000  2.000000
              2.000000  2.000000  2.000000  2.000000  2.000000  2.000000
              2.000000  2.000000  2.000000  2.000000  2.000000  2.000000
              2.000000  2.000000  2.000000  2.000000  2.000000  2.000000
              2.000000  2.000000  2.000000  2.000000  2.000000  2.000000
              2.000000  2.000000  2.000000  2.000000  2.000000  2.000000
              2.000000  2.000000  2.000000  2.000000  2.000000  2.000000
              2.000000  2.000000  2.000000  2.000000  2.000000  2.000000
              2.000000  2.000000  2.000000  2.000000  2.000000  2.000000
              0.000000  0.000000  0.000000  0.000000  0.000000  0.000000
              0.000000  0.000000  0.000000  0.000000  0.000000  0.000000
              0.000000  0.000000  0.000000  0.000000  0.000000  0.000000
              0.000000  0.000000  0.000000  0.000000  0.000000  0.000000
              0.000000  0.000000  0.000000  0.000000
    occopt         3
 prtdensph         1
    prtvol         5
     prtwf         0
 ptgroupma         9
    shiftk    0.00000000E+00  0.00000000E+00  0.00000000E+00
              0.00000000E+00  0.00000000E+00  0.00000000E+00
              5.00000000E-01  0.00000000E+00  0.00000000E+00
              0.00000000E+00  0.00000000E+00  0.00000000E+00
   spgroup        29
    spinat    0.0000000000E+00  0.0000000000E+00  4.0000000000E+00
              0.0000000000E+00  0.0000000000E+00 -4.0000000000E+00
              0.0000000000E+00  0.0000000000E+00  4.0000000000E+00
              0.0000000000E+00  0.0000000000E+00 -4.0000000000E+00
              0.0000000000E+00  0.0000000000E+00  1.0000000000E+00
              0.0000000000E+00  0.0000000000E+00 -1.0000000000E+00
              0.0000000000E+00  0.0000000000E+00  1.0000000000E+00
              0.0000000000E+00  0.0000000000E+00 -1.0000000000E+00
              0.0000000000E+00  0.0000000000E+00  1.0000000000E+00
              0.0000000000E+00  0.0000000000E+00 -1.0000000000E+00
              0.0000000000E+00  0.0000000000E+00  1.0000000000E+00
              0.0000000000E+00  0.0000000000E+00 -1.0000000000E+00
              0.0000000000E+00  0.0000000000E+00  1.0000000000E+00
              0.0000000000E+00  0.0000000000E+00 -1.0000000000E+00
              0.0000000000E+00  0.0000000000E+00  1.0000000000E+00
              0.0000000000E+00  0.0000000000E+00 -1.0000000000E+00
              0.0000000000E+00  0.0000000000E+00  1.0000000000E+00
              0.0000000000E+00  0.0000000000E+00 -1.0000000000E+00
              0.0000000000E+00  0.0000000000E+00  1.0000000000E+00
              0.0000000000E+00  0.0000000000E+00 -1.0000000000E+00
              0.0000000000E+00  0.0000000000E+00  1.0000000000E+00
              0.0000000000E+00  0.0000000000E+00 -1.0000000000E+00
              0.0000000000E+00  0.0000000000E+00  1.0000000000E+00
              0.0000000000E+00  0.0000000000E+00 -1.0000000000E+00
              0.0000000000E+00  0.0000000000E+00  1.0000000000E+00
              0.0000000000E+00  0.0000000000E+00 -1.0000000000E+00
              0.0000000000E+00  0.0000000000E+00  1.0000000000E+00
              0.0000000000E+00  0.0000000000E+00 -1.0000000000E+00
    strten    7.7381501688E-03  7.1502225770E-03  7.5560537369E-03
              0.0000000000E+00  0.0000000000E+00  0.0000000000E+00
    symafm    1 -1 -1   1
    symrel    1  0  0   0  1  0   0  0  1       1  0  0   0 -1  0   0  0  1
             -1  0  0   0 -1  0   0  0  1      -1  0  0   0  1  0   0  0  1
     tnons    0.0000000  0.0000000  0.0000000     0.0000000  0.5000000  0.5000000
              0.5000000  0.0000000  0.5000000     0.5000000  0.5000000  0.0000000
    toldfe    1.00000000E-07 Hartree
    tsmear    1.00000000E-03 Hartree
     typat    1  1  1  1  2  2  2  2  2  2  2  2  2  2  2  2  2  2  2  2
              3  3  3  3  3  3  3  3
       wtk      0.18750    0.12500    0.37500    0.12500    0.18750
    xangst    2.7022000231E+00 -7.6194603536E-17  5.9753499745E+00
              0.0000000000E+00 -7.6194603536E-17  0.0000000000E+00
              0.0000000000E+00  2.7451999047E+00  5.9753499745E+00
              2.7022000231E+00  2.7451999047E+00  0.0000000000E+00
              3.7576793522E+00  1.6635911423E+00  5.6837528958E+00
              1.6467206941E+00  3.8268086672E+00  6.2669470533E+00
              1.0554793290E+00  1.6635911423E+00  2.9159707876E-01
              4.3489207172E+00  3.8268086672E+00  1.1659102870E+01
              4.3489207172E+00  4.4087910470E+00  5.6837528958E+00
              1.0554793290E+00  1.0816087625E+00  6.2669470533E+00
              1.6467206941E+00  4.4087910470E+00  2.9159707876E-01
              3.7576793522E+00  1.0816087625E+00  1.1659102870E+01
              2.3768551403E+00  5.3800427733E+00  3.9951189930E+00
              3.0275449059E+00  1.1035703617E-01  7.9555809561E+00
              5.0790551635E+00  5.3800427733E+00  1.9802309816E+00
              3.2534488279E-01  1.1035703617E-01  9.9704689675E+00
              3.2534488279E-01  2.6348428686E+00  3.9951189930E+00
              5.0790551635E+00  2.8555569409E+00  7.9555809561E+00
              3.0275449059E+00  2.6348428686E+00  1.9802309816E+00
              2.3768551403E+00  2.8555569409E+00  9.9704689675E+00
              2.7605675436E+00  2.5036223131E-01  1.8021655523E+00
              2.6438325026E+00  5.2400375782E+00  1.0148534397E+01
              5.8367520500E-02  2.5036223131E-01  4.1731844222E+00
              5.3460325258E+00  5.2400375782E+00  7.7775155268E+00
              5.3460325258E+00  2.9955621361E+00  1.8021655523E+00
              5.8367520500E-02  2.4948376734E+00  1.0148534397E+01
              2.6438325026E+00  2.9955621361E+00  4.1731844222E+00
              2.7605675436E+00  2.4948376734E+00  7.7775155268E+00
     xcart    5.1064180000E+00 -1.4398693349E-16  1.1291775000E+01
              0.0000000000E+00 -1.4398693349E-16  0.0000000000E+00
              0.0000000000E+00  5.1876760000E+00  1.1291775000E+01
              5.1064180000E+00  5.1876760000E+00  0.0000000000E+00
              7.1009848708E+00  3.1437316560E+00  1.0740736380E+01
              3.1118511292E+00  7.2316203440E+00  1.1842813620E+01
              1.9945668708E+00  3.1437316560E+00  5.5103862000E-01
              8.2182691292E+00  7.2316203440E+00  2.2032511380E+01
              8.2182691292E+00  8.3314076560E+00  1.0740736380E+01
              1.9945668708E+00  2.0439443440E+00  1.1842813620E+01
              3.1118511292E+00  8.3314076560E+00  5.5103862000E-01
              7.1009848708E+00  2.0439443440E+00  2.2032511380E+01
              4.4916052728E+00  1.0166807425E+01  7.5496807650E+00
              5.7212307272E+00  2.0854457520E-01  1.5033869235E+01
              9.5980232728E+00  1.0166807425E+01  3.7420942350E+00
              6.1481272720E-01  2.0854457520E-01  1.8841455765E+01
              6.1481272720E-01  4.9791314248E+00  7.5496807650E+00
              9.5980232728E+00  5.3962205752E+00  1.5033869235E+01
              5.7212307272E+00  4.9791314248E+00  3.7420942350E+00
              4.4916052728E+00  5.3962205752E+00  1.8841455765E+01
              5.2167166288E+00  4.7311605120E-01  3.4055993400E+00
              4.9961193712E+00  9.9022359488E+00  1.9177950660E+01
              1.1029862880E-01  4.7311605120E-01  7.8861756600E+00
              1.0102537371E+01  9.9022359488E+00  1.4697374340E+01
              1.0102537371E+01  5.6607920512E+00  3.4055993400E+00
              1.1029862880E-01  4.7145599488E+00  1.9177950660E+01
              4.9961193712E+00  5.6607920512E+00  7.8861756600E+00
              5.2167166288E+00  4.7145599488E+00  1.4697374340E+01
      xred    5.0000000000E-01 -1.3877787808E-17  5.0000000000E-01
              0.0000000000E+00 -1.3877787808E-17  0.0000000000E+00
              0.0000000000E+00  5.0000000000E-01  5.0000000000E-01
              5.0000000000E-01  5.0000000000E-01  0.0000000000E+00
              6.9530000000E-01  3.0300000000E-01  4.7560000000E-01
              3.0470000000E-01  6.9700000000E-01  5.2440000000E-01
              1.9530000000E-01  3.0300000000E-01  2.4400000000E-02
              8.0470000000E-01  6.9700000000E-01  9.7560000000E-01
              8.0470000000E-01  8.0300000000E-01  4.7560000000E-01
              1.9530000000E-01  1.9700000000E-01  5.2440000000E-01
              3.0470000000E-01  8.0300000000E-01  2.4400000000E-02
              6.9530000000E-01  1.9700000000E-01  9.7560000000E-01
              4.3980000000E-01  9.7990000000E-01  3.3430000000E-01
              5.6020000000E-01  2.0100000000E-02  6.6570000000E-01
              9.3980000000E-01  9.7990000000E-01  1.6570000000E-01
              6.0200000000E-02  2.0100000000E-02  8.3430000000E-01
              6.0200000000E-02  4.7990000000E-01  3.3430000000E-01
              9.3980000000E-01  5.2010000000E-01  6.6570000000E-01
              5.6020000000E-01  4.7990000000E-01  1.6570000000E-01
              4.3980000000E-01  5.2010000000E-01  8.3430000000E-01
              5.1080000000E-01  4.5600000000E-02  1.5080000000E-01
              4.8920000000E-01  9.5440000000E-01  8.4920000000E-01
              1.0800000000E-02  4.5600000000E-02  3.4920000000E-01
              9.8920000000E-01  9.5440000000E-01  6.5080000000E-01
              9.8920000000E-01  5.4560000000E-01  1.5080000000E-01
              1.0800000000E-02  4.5440000000E-01  8.4920000000E-01
              4.8920000000E-01  5.4560000000E-01  3.4920000000E-01
              5.1080000000E-01  4.5440000000E-01  6.5080000000E-01
     znucl     44.00000    8.00000   20.00000

- as well as % of the total time and number of calls

-                                                          (-1=no count)
- nonlop(apply)        787.464  34.1    787.643  34.1          98087
- outkss(diago)        486.295  21.1    486.294  21.1              5
- projbd               338.395  14.7    338.495  14.7         128000
- fourwf(pot)          262.741  11.4    262.846  11.4          80000
- nonlop(forces)       216.503   9.4    216.500   9.4          15000
- vtowfk(ssdiag)        57.622   2.5     57.617   2.5             -1
- fourwf(den)           19.391   0.8     19.402   0.8          11004
- abinit(2)             15.941   0.7     15.940   0.7              1
- 62   others           23.949   1.0     23.804   1.0

- subtotal            2208.302  95.7   2208.541  95.7

 Calculation completed.
.Delivered    6 WARNINGs and   1 COMMENTs to log file.