.Version 8.8.2 of ABINIT
.(sequential version, prepared for a x86_64_linux_gnu4.8 computer)

 ABINIT is a project of the Universite Catholique de Louvain,
 Corning Inc. and other collaborators, see ~abinit/doc/developers/contributors.txt .
 Please read ~abinit/doc/users/acknowledgments.html for suggested
 acknowledgments of the ABINIT effort.

.Starting date : Fri 21 Sep 2018.
- ( at 08h20 )

- input  file    -> pd.in
- output file    -> pd.txt
- root for input  files -> pdi
- root for output files -> pdo

- inpspheads : Reading pseudopotential header in XML form from /data/users/Public/woffermans/abinit/Pd/Pd_surface_GGA_PBE_PAW/Pd111/5M7V1x1/Pd.GGA_PBE-JTH.xml

 Symmetries : space group P-1 (#  2); Bravais aP (primitive triclinic)
     intxc =       0    ionmov =       0      iscf =      17    lmnmax =      18
     lnmax =       6     mgfft =     256  mpssoang =       3    mqgrid =   14703
     natom =       5  nloc_mem =       2    nspden =       1   nspinor =       1
    nsppol =       1      nsym =       2    n1xccc =       1    ntypat =       1
    occopt =       3   xclevel =       2
-    mband =          48        mffmem =           1         mkmem =          25
       mpw =        9817          nfft =      186624          nkpt =          25
 PAW method is used; the additional fine FFT grid is defined by:
   mgfftf=       300    nfftf =    270000
  Rough estimation (10% accuracy) of disk space for files :

------------- Echo of variables that govern the present computation ------------
-
- outvars: echo of selected default values
-   iomode0 =  0 , fftalg0 =112 , wfoptalg0 = 10
-
- outvars: echo of global parameters not present in the input file
-  max_nthreads =    0
-
 -outvars: echo values of preprocessed input variables --------
            acell      1.8897261329E+00  1.8897261329E+00  1.8897261329E+00 Bohr
              amu      1.06420000E+02
          chkexit           1
             ecut      3.00000031E+01 Hartree
-          fftalg         112
           istwfk        2    0    0    0    0    0    0    0    0    0
                         0    0    0    0    0    0    0    0    0    0
                         0    0    0    0    0
              ixc          11
              kpt      0.00000000E+00  0.00000000E+00  0.00000000E+00
                       1.42857143E-01  0.00000000E+00  0.00000000E+00
                       2.85714286E-01  0.00000000E+00  0.00000000E+00
                       4.28571429E-01  0.00000000E+00  0.00000000E+00
                       0.00000000E+00  1.42857143E-01  0.00000000E+00
                       1.42857143E-01  1.42857143E-01  0.00000000E+00
                       2.85714286E-01  1.42857143E-01  0.00000000E+00
                       4.28571429E-01  1.42857143E-01  0.00000000E+00
                      -4.28571429E-01  1.42857143E-01  0.00000000E+00
                      -2.85714286E-01  1.42857143E-01  0.00000000E+00
                      -1.42857143E-01  1.42857143E-01  0.00000000E+00
                       0.00000000E+00  2.85714286E-01  0.00000000E+00
                       1.42857143E-01  2.85714286E-01  0.00000000E+00
                       2.85714286E-01  2.85714286E-01  0.00000000E+00
                       4.28571429E-01  2.85714286E-01  0.00000000E+00
                      -4.28571429E-01  2.85714286E-01  0.00000000E+00
                      -2.85714286E-01  2.85714286E-01  0.00000000E+00
                      -1.42857143E-01  2.85714286E-01  0.00000000E+00
                       0.00000000E+00  4.28571429E-01  0.00000000E+00
                       1.42857143E-01  4.28571429E-01  0.00000000E+00
                       2.85714286E-01  4.28571429E-01  0.00000000E+00
                       4.28571429E-01  4.28571429E-01  0.00000000E+00
                      -4.28571429E-01  4.28571429E-01  0.00000000E+00
                      -2.85714286E-01  4.28571429E-01  0.00000000E+00
                      -1.42857143E-01  4.28571429E-01  0.00000000E+00
         kptrlatt        7    0    0      0    7    0      0    0    1
          kptrlen      3.68931233E+01
P           mkmem          25
            natom           5
            nband          48
            ngfft          27      27     256
          ngfftdg          30      30     300
             nkpt          25
            nstep         200
             nsym           2
           ntypat           1
              occ      2.000000  2.000000  2.000000  2.000000  2.000000  2.000000
                       2.000000  2.000000  2.000000  2.000000  2.000000  2.000000
                       2.000000  2.000000  2.000000  2.000000  2.000000  2.000000
                       2.000000  2.000000  2.000000  2.000000  2.000000  2.000000
                       2.000000  2.000000  2.000000  2.000000  2.000000  2.000000
                       2.000000  2.000000  2.000000  2.000000  2.000000  2.000000
                       2.000000  2.000000  2.000000  2.000000  2.000000  2.000000
                       2.000000  2.000000  2.000000  0.000000  0.000000  0.000000
                       2.000000  2.000000  2.000000  2.000000  2.000000  2.000000
                       2.000000  2.000000  2.000000  2.000000  2.000000  2.000000
                       2.000000  2.000000  2.000000  2.000000  2.000000  2.000000
                       2.000000  2.000000  2.000000  2.000000  2.000000  2.000000
                       2.000000  2.000000  2.000000  2.000000  2.000000  2.000000
                       2.000000  2.000000  2.000000  2.000000  2.000000  2.000000
                       2.000000  2.000000  2.000000  2.000000  2.000000  2.000000
                       2.000000  2.000000  2.000000  0.000000  0.000000  0.000000
                       2.000000  2.000000  2.000000  2.000000  2.000000  2.000000
                       2.000000  2.000000  2.000000  2.000000  2.000000  2.000000
                       2.000000  2.000000  2.000000  2.000000  2.000000  2.000000
                       2.000000  2.000000  2.000000  2.000000  2.000000  2.000000
                       2.000000  2.000000  2.000000  2.000000  2.000000  2.000000
                       2.000000  2.000000  2.000000  2.000000  2.000000  2.000000
                       2.000000  2.000000  2.000000  2.000000  2.000000  2.000000
                       2.000000  2.000000  2.000000  0.000000  0.000000  0.000000
                       2.000000  2.000000  2.000000  2.000000  2.000000  2.000000
                       2.000000  2.000000  2.000000  2.000000  2.000000  2.000000
                       2.000000  2.000000  2.000000  2.000000  2.000000  2.000000
                       2.000000  2.000000  2.000000  2.000000  2.000000  2.000000
                       2.000000  2.000000  2.000000  2.000000  2.000000  2.000000
                       2.000000  2.000000  2.000000  2.000000  2.000000  2.000000
                       2.000000  2.000000  2.000000  2.000000  2.000000  2.000000
                       2.000000  2.000000  2.000000  0.000000  0.000000  0.000000
                       2.000000  2.000000  2.000000  2.000000  2.000000  2.000000
                       2.000000  2.000000  2.000000  2.000000  2.000000  2.000000
                       2.000000  2.000000  2.000000  2.000000  2.000000  2.000000
                       2.000000  2.000000  2.000000  2.000000  2.000000  2.000000
                       2.000000  2.000000  2.000000  2.000000  2.000000  2.000000
                       2.000000  2.000000  2.000000  2.000000  2.000000  2.000000
                       2.000000  2.000000  2.000000  2.000000  2.000000  2.000000
                       2.000000  2.000000  2.000000  0.000000  0.000000  0.000000
                       2.000000  2.000000  2.000000  2.000000  2.000000  2.000000
                       2.000000  2.000000  2.000000  2.000000  2.000000  2.000000
                       2.000000  2.000000  2.000000  2.000000  2.000000  2.000000
                       2.000000  2.000000  2.000000  2.000000  2.000000  2.000000
                       2.000000  2.000000  2.000000  2.000000  2.000000  2.000000
                       2.000000  2.000000  2.000000  2.000000  2.000000  2.000000
                       2.000000  2.000000  2.000000  2.000000  2.000000  2.000000
                       2.000000  2.000000  2.000000  0.000000  0.000000  0.000000
                       2.000000  2.000000  2.000000  2.000000  2.000000  2.000000
                       2.000000  2.000000  2.000000  2.000000  2.000000  2.000000
                       2.000000  2.000000  2.000000  2.000000  2.000000  2.000000
                       2.000000  2.000000  2.000000  2.000000  2.000000  2.000000
                       2.000000  2.000000  2.000000  2.000000  2.000000  2.000000
                       2.000000  2.000000  2.000000  2.000000  2.000000  2.000000
                       2.000000  2.000000  2.000000  2.000000  2.000000  2.000000
                       2.000000  2.000000  2.000000  0.000000  0.000000  0.000000
                       2.000000  2.000000  2.000000  2.000000  2.000000  2.000000
                       2.000000  2.000000  2.000000  2.000000  2.000000  2.000000
                       2.000000  2.000000  2.000000  2.000000  2.000000  2.000000
                       2.000000  2.000000  2.000000  2.000000  2.000000  2.000000
                       2.000000  2.000000  2.000000  2.000000  2.000000  2.000000
[...]
                       2.000000  2.000000  2.000000  2.000000  2.000000  2.000000
                       2.000000  2.000000  2.000000  2.000000  2.000000  2.000000
                       2.000000  2.000000  2.000000  2.000000  2.000000  2.000000
                       2.000000  2.000000  2.000000  2.000000  2.000000  2.000000
                       2.000000  2.000000  2.000000  2.000000  2.000000  2.000000
                       2.000000  2.000000  2.000000  2.000000  2.000000  2.000000
                       2.000000  2.000000  2.000000  0.000000  0.000000  0.000000
                       2.000000  2.000000  2.000000  2.000000  2.000000  2.000000
                       2.000000  2.000000  2.000000  2.000000  2.000000  2.000000
                       2.000000  2.000000  2.000000  2.000000  2.000000  2.000000
                       2.000000  2.000000  2.000000  2.000000  2.000000  2.000000
                       2.000000  2.000000  2.000000  2.000000  2.000000  2.000000
                       2.000000  2.000000  2.000000  2.000000  2.000000  2.000000
                       2.000000  2.000000  2.000000  2.000000  2.000000  2.000000
                       2.000000  2.000000  2.000000  0.000000  0.000000  0.000000
           occopt           3
        pawecutdg      3.99999870E+01 Hartree
            rprim      2.7890000000E+00  0.0000000000E+00  0.0000000000E+00
                       1.3945000000E+00  2.4153448512E+00  0.0000000000E+00
                       0.0000000000E+00  0.0000000000E+00  2.7326507570E+01
          spgroup           2
           symrel      1  0  0   0  1  0   0  0  1      -1  0  0   0 -1  0   0  0 -1
            tnons      0.0000000  0.0000000  0.0000000     0.3333333  0.3333333  0.0000000
           toldfe      3.67493254E-08 Hartree
[...]
  -1.75629   -1.75629   -1.74971   -1.74968   -0.18548   -0.15470   -0.12893   -0.11956
  -0.11593   -0.04207   -0.04010   -0.04003   -0.04001   -0.03783   -0.03774   -0.03258
  -0.03258   -0.02586   -0.02583   -0.02533   -0.02487   -0.02487    0.01457    0.01464
   0.01864    0.01879    0.01890    0.03091    0.03108    0.04654    0.04675    0.05570
      occupation numbers for kpt#   1
   2.00000    2.00000    2.00000    2.00000    2.00000    2.00000    2.00000    2.00000
   2.00000    2.00000    2.00000    2.00000    2.00000    2.00000    2.00000    2.00000
   2.00000    2.00000    2.00000    2.00000    2.00000    2.00000    2.00000    2.00000
   2.00000    2.00000    2.00000    2.00000    2.00000    2.00000    2.00000    2.00000
   2.00000    2.00000    2.00000    2.00000    2.00000    2.00000    2.00000    2.00000
   2.00000    2.00000    2.00000    2.00000    2.00000    2.00000    2.00000    1.94193
 prteigrs : prtvol=0 or 1, do not print more k-points.

 Components of total free energy (in Hartree) :

    Kinetic energy  =  6.59699630716093E+01
    Hartree energy  =  3.22908673736317E+03
    XC energy       = -2.10321220929086E+01
    Ewald energy    =  2.70947979783116E+03
    PspCore energy  =  1.66379915039134E+01
    Loc. psp. energy= -6.59327335781885E+03
    Spherical terms = -5.09261092021223E+01
    >>>>> Internal E= -6.44057099344035E+02

    -kT*entropy     = -4.88558261331698E-04
    >>>>>>>>> Etotal= -6.44057587902296E+02

 "Double-counting" decomposition of free energy:
    Band energy     = -8.45129736273732E+01
    Ewald energy    =  2.70947979783116E+03
    PspCore energy  =  1.66379915039134E+01
    Dble-C XC-energy= -3.22578511355917E+03
    Spherical terms = -5.98769174206729E+01
    >>>>> Internal E= -6.44057215272146E+02

    -kT*entropy     = -4.88558261331698E-04
    >>>> Etotal (DC)= -6.44057703830407E+02

  >Total energy in eV           = -1.75256982523551E+04
  >Total DC energy in eV        = -1.75257014069194E+04

 Cartesian components of stress tensor (hartree/bohr^3)
  sigma(1 1)=  1.02285665E-04  sigma(3 2)=  1.43032192E-06
  sigma(2 2)=  1.01054235E-04  sigma(3 1)= -2.16573612E-06
  sigma(3 3)=  4.37140385E-05  sigma(2 1)= -9.22518877E-07

-Cartesian components of stress tensor (GPa)         [Pressure= -2.4229E+00 GPa]
- sigma(1 1)=  3.00934765E+00  sigma(3 2)=  4.20815166E-02
- sigma(2 2)=  2.97311773E+00  sigma(3 1)= -6.37181457E-02
- sigma(3 3)=  1.28611120E+00  sigma(2 1)= -2.71414379E-02

== END DATASET(S) ==============================================================

 -outvars: echo values of variables after computation  --------
            acell      1.8897261329E+00  1.8897261329E+00  1.8897261329E+00 Bohr
              amu      1.06420000E+02
          chkexit           1
             ecut      3.00000031E+01 Hartree
           etotal     -6.4405770383E+02
            fcart     -1.6024455292E-04  1.0716302101E-04 -1.6353006203E-04
                       6.4543070313E-06 -6.8833075155E-06 -9.0943598269E-05
                      -0.0000000000E+00 -0.0000000000E+00 -5.4210108624E-21
                      -6.4543070313E-06  6.8833075155E-06  9.0943598269E-05
                       1.6024455292E-04 -1.0716302101E-04  1.6353006203E-04
-          fftalg         112
           istwfk        2    0    0    0    0    0    0    0    0    0
                         0    0    0    0    0    0    0    0    0    0
                         0    0    0    0    0
              ixc          11
              kpt      0.00000000E+00  0.00000000E+00  0.00000000E+00
                       1.42857143E-01  0.00000000E+00  0.00000000E+00
                       2.85714286E-01  0.00000000E+00  0.00000000E+00
                       4.28571429E-01  0.00000000E+00  0.00000000E+00
                       0.00000000E+00  1.42857143E-01  0.00000000E+00
                       1.42857143E-01  1.42857143E-01  0.00000000E+00
                       2.85714286E-01  1.42857143E-01  0.00000000E+00
                       4.28571429E-01  1.42857143E-01  0.00000000E+00
                      -4.28571429E-01  1.42857143E-01  0.00000000E+00
                      -2.85714286E-01  1.42857143E-01  0.00000000E+00
                      -1.42857143E-01  1.42857143E-01  0.00000000E+00
                       0.00000000E+00  2.85714286E-01  0.00000000E+00
                       1.42857143E-01  2.85714286E-01  0.00000000E+00
                       2.85714286E-01  2.85714286E-01  0.00000000E+00
                       4.28571429E-01  2.85714286E-01  0.00000000E+00
                      -4.28571429E-01  2.85714286E-01  0.00000000E+00
                      -2.85714286E-01  2.85714286E-01  0.00000000E+00
                      -1.42857143E-01  2.85714286E-01  0.00000000E+00
                       0.00000000E+00  4.28571429E-01  0.00000000E+00
                       1.42857143E-01  4.28571429E-01  0.00000000E+00
                       2.85714286E-01  4.28571429E-01  0.00000000E+00
                       4.28571429E-01  4.28571429E-01  0.00000000E+00
                      -4.28571429E-01  4.28571429E-01  0.00000000E+00
                      -2.85714286E-01  4.28571429E-01  0.00000000E+00
                      -1.42857143E-01  4.28571429E-01  0.00000000E+00
         kptrlatt        7    0    0      0    7    0      0    0    1
          kptrlen      3.68931233E+01
P           mkmem          25
            natom           5
            nband          48
            ngfft          27      27     256
          ngfftdg          30      30     300
             nkpt          25
            nstep         200
             nsym           2
           ntypat           1
              occ      2.000000  2.000000  2.000000  2.000000  2.000000  2.000000
                       2.000000  2.000000  2.000000  2.000000  2.000000  2.000000
                       2.000000  2.000000  2.000000  2.000000  2.000000  2.000000
                       2.000000  2.000000  2.000000  2.000000  2.000000  2.000000
                       2.000000  2.000000  2.000000  2.000000  2.000000  2.000000
                       2.000000  2.000000  2.000000  2.000000  2.000000  2.000000
                       2.000000  2.000000  2.000000  2.000000  2.000000  2.000000
                       2.000000  2.000000  2.000000  2.000000  2.000000  1.941935
                       2.000000  2.000000  2.000000  2.000000  2.000000  2.000000
                       2.000000  2.000000  2.000000  2.000000  2.000000  2.000000
                       2.000000  2.000000  2.000000  2.000000  2.000000  2.000000
                       2.000000  2.000000  2.000000  2.000000  2.000000  2.000000
                       2.000000  2.000000  2.000000  2.000000  2.000000  2.000000
                       2.000000  2.000000  2.000000  2.000000  2.000000  2.000000
                       2.000000  2.000000  2.000000  2.000000  2.000000  2.000000
                       2.000000  2.000000  2.000000  2.000000  2.000000  1.792029
                       2.000000  2.000000  2.000000  2.000000  2.000000  2.000000
                       2.000000  2.000000  2.000000  2.000000  2.000000  2.000000
                       2.000000  2.000000  2.000000  2.000000  2.000000  2.000000
                       2.000000  2.000000  2.000000  2.000000  2.000000  2.000000
                       2.000000  2.000000  2.000000  2.000000  2.000000  2.000000
                       2.000000  2.000000  2.000000  2.000000  2.000000  2.000000
                       2.000000  2.000000  2.000000  2.000000  2.000000  2.000000
                       2.000000  2.000000  2.000000  2.000000  0.869099  0.000004
                       2.000000  2.000000  2.000000  2.000000  2.000000  2.000000
                       2.000000  2.000000  2.000000  2.000000  2.000000  2.000000
                       2.000000  2.000000  2.000000  2.000000  2.000000  2.000000
                       2.000000  2.000000  2.000000  2.000000  2.000000  2.000000
                       2.000000  2.000000  2.000000  2.000000  2.000000  2.000000
                       2.000000  2.000000  2.000000  2.000000  2.000000  2.000000
                       2.000000  2.000000  1.999798  1.999720  1.999452  1.906767
                       0.293560  0.021063  0.000929  0.000000  0.000000  0.000000
                       2.000000  2.000000  2.000000  2.000000  2.000000  2.000000
                       2.000000  2.000000  2.000000  2.000000  2.000000  2.000000
                       2.000000  2.000000  2.000000  2.000000  2.000000  2.000000
                       2.000000  2.000000  2.000000  2.000000  2.000000  2.000000
                       2.000000  2.000000  2.000000  2.000000  2.000000  2.000000
                       2.000000  2.000000  2.000000  2.000000  2.000000  2.000000
                       2.000000  2.000000  2.000000  2.000000  2.000000  2.000000
                       2.000000  2.000000  2.000000  2.000000  2.000000  1.829946
                       2.000000  2.000000  2.000000  2.000000  2.000000  2.000000
                       2.000000  2.000000  2.000000  2.000000  2.000000  2.000000
                       2.000000  2.000000  2.000000  2.000000  2.000000  2.000000
                       2.000000  2.000000  2.000000  2.000000  2.000000  2.000000
                       2.000000  2.000000  2.000000  2.000000  2.000000  2.000000
                       2.000000  2.000000  2.000000  2.000000  2.000000  2.000000
                       2.000000  2.000000  2.000000  2.000000  2.000000  2.000000
                       2.000000  2.000000  2.000000  2.000000  2.000000  1.827147
                       2.000000  2.000000  2.000000  2.000000  2.000000  2.000000
                       2.000000  2.000000  2.000000  2.000000  2.000000  2.000000
                       2.000000  2.000000  2.000000  2.000000  2.000000  2.000000
                       2.000000  2.000000  2.000000  2.000000  2.000000  2.000000
                       2.000000  2.000000  2.000000  2.000000  2.000000  2.000000
                       2.000000  2.000000  2.000000  2.000000  2.000000  2.000000
                       2.000000  2.000000  2.000000  2.000000  2.000000  2.000000
                       2.000000  2.000000  2.000000  2.000000  1.999932  0.000121
                       2.000000  2.000000  2.000000  2.000000  2.000000  2.000000
                       2.000000  2.000000  2.000000  2.000000  2.000000  2.000000
                       2.000000  2.000000  2.000000  2.000000  2.000000  2.000000
                       2.000000  2.000000  2.000000  2.000000  2.000000  2.000000
                       2.000000  2.000000  2.000000  2.000000  2.000000  2.000000
[...]
                       2.000000  2.000000  2.000000  2.000000  2.000000  2.000000
                       2.000000  2.000000  2.000000  2.000000  2.000000  2.000000
                       2.000000  2.000000  2.000000  2.000000  2.000000  2.000000
                       2.000000  2.000000  2.000000  2.000000  2.000000  2.000000
                       2.000000  2.000000  2.000000  2.000000  2.000000  2.000000
                       2.000000  2.000000  2.000000  2.000000  2.000000  2.000000
                       1.999143  1.982566  0.121472  0.000000  0.000000  0.000000
                       2.000000  2.000000  2.000000  2.000000  2.000000  2.000000
                       2.000000  2.000000  2.000000  2.000000  2.000000  2.000000
                       2.000000  2.000000  2.000000  2.000000  2.000000  2.000000
                       2.000000  2.000000  2.000000  2.000000  2.000000  2.000000
                       2.000000  2.000000  2.000000  2.000000  2.000000  2.000000
                       2.000000  2.000000  2.000000  2.000000  2.000000  2.000000
                       2.000000  2.000000  2.000000  2.000000  1.999998  1.999997
                       1.999028  1.834068  0.007306  0.000000  0.000000  0.000000
           occopt           3
        pawecutdg      3.99999870E+01 Hartree
            rprim      2.7890000000E+00  0.0000000000E+00  0.0000000000E+00
                       1.3945000000E+00  2.4153448512E+00  0.0000000000E+00
                       0.0000000000E+00  0.0000000000E+00  2.7326507570E+01
          spgroup           2
           strten      1.0228566494E-04  1.0105423476E-04  4.3714038460E-05
                       1.4303219163E-06 -2.1657361184E-06 -9.2251887735E-07
           symrel      1  0  0   0  1  0   0  0  1      -1  0  0   0 -1  0   0  0 -1
            tnons      0.0000000  0.0000000  0.0000000     0.3333333  0.3333333  0.0000000
           toldfe      3.67493254E-08 Hartree
           tsmear      7.34986508E-04 Hartree
            typat      1  1  1  1  1
           useylm           1
              wtk        0.02041    0.04082    0.04082    0.04082    0.04082    0.04082
                         0.04082    0.04082    0.04082    0.04082    0.04082    0.04082
                         0.04082    0.04082    0.04082    0.04082    0.04082    0.04082
                         0.04082    0.04082    0.04082    0.04082    0.04082    0.04082
                         0.04082
           xangst      1.3945000000E-04 -2.4153448512E-04  9.1262821286E+00
                       1.3945000000E+00  8.0511495038E-01  1.1406838253E+01
                       2.7890000000E+00  1.6102299008E+00  1.3663253785E+01
                       4.1835000000E+00  2.4153448512E+00  1.5919669318E+01
                       5.5778605500E+00  3.2207013360E+00  1.8200225442E+01
            xcart      2.6352230923E-04 -4.5643402852E-04  1.7246173834E+01
                       2.6352230923E+00  1.5214467617E+00  2.1555800340E+01
                       5.2704461846E+00  3.0428935234E+00  2.5819807738E+01
                       7.9056692769E+00  4.5643402852E+00  3.0083815136E+01
                       1.0540628847E+01  6.0862434809E+00  3.4393441642E+01
             xred      1.0000000000E-04 -1.0000000000E-04  3.3397177100E-01
                       3.3333333333E-01  3.3333333333E-01  4.1742759200E-01
                       6.6666666667E-01  6.6666666667E-01  5.0000000000E-01
                       1.0000000000E+00  1.0000000000E+00  5.8257240800E-01
                       1.3332333333E+00  1.3334333333E+00  6.6602822900E-01
            znucl       46.00000

-
-  as well as % of the time and number of calls for node 0-
-<BEGIN_TIMER mpi_nprocs = 1, omp_nthreads = 1, mpi_rank = 0>
- cpu_time =        11862.4, wall_time =        11972.5
-
-                                                                  (-1=no count)
- nonlop(apply)               4274.605  36.0   4321.568  36.1         780091      -1.00        0.99       0.99
- fourwf%(pot)                3884.821  32.7   3923.214  32.8         780091      -1.00        0.99       0.99
- projbd                      1451.552  12.2   1463.131  12.2         614491      -1.00        0.99       0.99
- vtowfk(ssdiag)               730.804   6.2    738.023   6.2             -1      -1.00        0.99       0.99
- fourwf%(den)                 413.060   3.5    416.998   3.5         156908      -1.00        0.99       0.99
- vtowfk(contrib)              363.874   3.1    367.296   3.1           3400      -1.00        0.99       0.99
- others (107)                 152.338   1.3    152.130   1.3             -1      -1.00        1.00       1.00
-<END_TIMER>
-
- subtotal                   11271.054  95.0  11382.360  95.1                                  0.99       0.99

- as well as % of the total time and number of calls

-<BEGIN_TIMER mpi_nprocs = 1, omp_nthreads = 1, mpi_rank = world>
- cpu_time =       11862.4, wall_time =       11972.5
-
-                                                                  (-1=no count)
- nonlop(apply)               4274.605  36.0   4321.568  36.1         780091      -1.00        0.99       0.99
- fourwf%(pot)                3884.821  32.7   3923.214  32.8         780091      -1.00        0.99       0.99
- projbd                      1451.552  12.2   1463.131  12.2         614491      -1.00        0.99       0.99
- vtowfk(ssdiag)               730.804   6.2    738.023   6.2             -1      -1.00        0.99       0.99
- fourwf%(den)                 413.060   3.5    416.998   3.5         156908      -1.00        0.99       0.99
- vtowfk(contrib)              363.874   3.1    367.296   3.1           3400      -1.00        0.99       0.99
- others (107)                 152.338   1.3    152.130   1.3             -1      -1.00        1.00       1.00
-<END_TIMER>

- subtotal                   11271.054  95.0  11382.360  95.1                                  0.99       0.99

 Suggested references for the acknowledgment of ABINIT usage.

 Calculation completed.
.Delivered 137 WARNINGs and   3 COMMENTs to log file.