.Version 6.4.2  of ABINIT

 ABINIT is a project of the Universite Catholique de Louvain,
 Corning Inc. and other collaborators, see ~abinit/doc/developers/contributors.txt .
 Please read ~abinit/doc/users/acknowledgments.html for suggested
 acknowledgments of the ABINIT effort.

.Starting date : Tue  7 Dec 2010.
- ( at 13h27 )

 === Build Information ===
  Version       : 6.4.2
  Build target  : x86_64_linux_gnu4.4
  Build date    : 20101207

 === Optimizations ===
  Debug level        : basic
  Optimization level : yes
  Architecture       : intel_xeon

  Parallel build : yes
  Parallel I/O   : no

 === Plug-ins ===
  BigDFT    : yes
  ETSF I/O  : yes
  FoX       : no
  NetCDF    : yes
  Wannier90 : no

 === Experimental features ===
  Bindings            : no
  Exports             : no
  GW double-precision : yes
  Macroave build      : yes

 Default optimizations:
   --- None ---

 CPP options activated during the build:

                    CC_GNU                   CXX_GNU                    FC_GNU

               HAVE_BIGDFT              HAVE_ETSF_IO              HAVE_FC_EXIT

             HAVE_FC_FLUSH             HAVE_FC_GAMMA            HAVE_FC_GETENV

          HAVE_FC_INT_QUAD     HAVE_FC_ISO_C_BINDING        HAVE_FC_LONG_LINES

              HAVE_FC_NULL          HAVE_FORTRAN2003               HAVE_GW_DPC

               HAVE_NETCDF             HAVE_OS_LINUX              HAVE_STDIO_H

              USE_MACROAVE

- input  file    -> 1.in
- output file    -> 1.outA
- root for input  files -> 1xi
- root for output files -> 1xo

 instrng :    51 lines of input have been read

 iofn2 : Please give name of formatted atomic psp file
 iofn2 : for atom type   1 , psp file is 14-Si.LDA.fhi

 iofn2 : Please give name of formatted atomic psp file
 iofn2 : for atom type   2 , psp file is 01-H.LDA.fhi
-P-0000   read the values zionpsp=  4.0 , pspcod=   6 , lmax=   3
-P-0000   read the values zionpsp=  1.0 , pspcod=   6 , lmax=   3
-P-0000
-P-0000  inpspheads : deduce mpsang  =   4, n1xccc  =   0.
-P-0000  leave_test : synchronization done...

 invars1m : enter jdtset=     0
 invars1 : treat image number     1

 symlatt : the Bravais lattice is cP (primitive cubic)
  xangst is defined in input file
 ingeo : takes atomic coordinates from input array xangst

 symlatt : the Bravais lattice is cP (primitive cubic)

 symlatt : the Bravais lattice is cP (primitive cubic)
 symspgr : the symmetry operation no.   1 is the identity
 symaxes : the symmetry operation no.   2 is a 2-axis
 symaxes : the symmetry operation no.   3 is a 2-axis
 symaxes : the symmetry operation no.   4 is a 2-axis
 symplanes : the symmetry operation no.   5 is a mirror plane
 symspgr : the symmetry operation no.   6 is a -4 axis
 symplanes : the symmetry operation no.   7 is a mirror plane
 symspgr : the symmetry operation no.   8 is a -4 axis
 symaxes : the symmetry operation no.   9 is a 3-axis
 symaxes : the symmetry operation no.  10 is a 3-axis
 symaxes : the symmetry operation no.  11 is a 3-axis
 symaxes : the symmetry operation no.  12 is a 3-axis
 symplanes : the symmetry operation no.  13 is a mirror plane
 symspgr : the symmetry operation no.  14 is a -4 axis
 symspgr : the symmetry operation no.  15 is a -4 axis
 symplanes : the symmetry operation no.  16 is a mirror plane
 symaxes : the symmetry operation no.  17 is a 3-axis
 symaxes : the symmetry operation no.  18 is a 3-axis
 symaxes : the symmetry operation no.  19 is a 3-axis
 symaxes : the symmetry operation no.  20 is a 3-axis
 symplanes : the symmetry operation no.  21 is a mirror plane
 symplanes : the symmetry operation no.  22 is a mirror plane
 symspgr : the symmetry operation no.  23 is a -4 axis
 symspgr : the symmetry operation no.  24 is a -4 axis
 symspgr : spgroup= 215  P-4 3 m   (=Td^1)
 inkpts: Sum of    1 k point weights is    1.000000
 npfft, npband and npkpt           1           5           1
 mpi_enreg%sizecart(1),np_fft           1           1
 mpi_enreg%sizecart(2),np_band           5           5
 mpi_enreg%sizecart(3),np_kpt           1           1
 in initmpi_grid : me_fft, me_band, me_kpt are           0           0           0
 invars1: mkmem  undefined in the input file. Use default mkmem  = nkpt
 invars1: With nkpt_me=    1 and mkmem  =     1, ground state wf handled in core.
 invars1: mkqmem undefined in the input file. Use default mkqmem = nkpt
 invars1: With nkpt_me=    1 and mkqmem =     1, ground state wf handled in core.
 invars1: mk1mem undefined in the input file. Use default mk1mem = nkpt
 invars1: With nkpt_me=    1 and mk1mem =     1, ground state wf handled in core.

  nproc    npkpt    npband     npfft    bandpp    weight

 Symmetries : space group P-4 3 m (#215); Bravais cP (primitive cubic)
 inkpts: Sum of    1 k point weights is    1.000000
 chkneu : initialized the occupation numbers for occopt=    1
    spin-unpolarized case :
  2.00  2.00  2.00  2.00  2.00  2.00  2.00  2.00  2.00  2.00  2.00  2.00
  2.00  2.00  2.00  2.00  2.00  2.00  2.00  2.00  2.00  2.00  2.00  2.00
  2.00  2.00  2.00  2.00  0.00  0.00  0.00  0.00  0.00  0.00  0.00  0.00
  0.00  0.00  0.00  0.00
 npfft, npband and npkpt           1           5           1
 mpi_enreg%sizecart(1),np_fft           1           1
 mpi_enreg%sizecart(2),np_band           5           5
 mpi_enreg%sizecart(3),np_kpt           1           1
 in initmpi_grid : me_fft, me_band, me_kpt are           0           0           0
 in initmpi:me_fft, me_band, me_kpt are           0           0           0

 getng.F90:195:WARNING
 For input ecut=  1.000000E+01 best grid ngfft=     100     100     100
       max ecut=  1.066270E+01

 ==== FFT mesh ====
  FFT mesh divisions ........................   100  100  100
  Augmented FFT divisions ...................   101  101  100
  FFT algorithm .............................   401
  FFT cache size ............................    16
 getmpw: optimal value of mpw=    5959

 getdim_nloc : deduce lmnmax  =  16, lnmax  =   4,
                      lmnmaxso=  16, lnmaxso=   4.
   intxc =         0  ionmov =         0    iscf =         7 xclevel =         1
  lmnmax =         4   lnmax =         4   mband =        40  mffmem =         1
P  mgfft =       100   mkmem =         1 mpssoang=         4     mpw =      5959
  mqgrid =      3001   natom =        26    nfft =   1000000    nkpt =         1
  nloalg =         4  nspden =         1 nspinor =         1  nsppol =         1
    nsym =        24  n1xccc =         0  ntypat =         2  occopt =         1
  Rough estimation (10% accuracy) of disk space for files :

-P-0000  leave_test : synchronization done...
 The job will continue.
  tolsym=  1.00000000000000002E-008  1.00000000000000002E-008
 -outvars: echo values of preprocessed input variables --------
            acell    3.4015067794E+01  3.4015067794E+01  3.4015067794E+01 Bohr
              amu    2.80855000E+01  1.00794000E+00
           diemac    2.00000000E+00
             ecut    1.00000000E+01 Hartree
           fftalg       401
      fft_opt_lob         2
           istwfk      2
              ixc         7
           kptopt         0
P           mkmem         1
            natom        26
            nband        40
            ngfft       100     100     100
             nkpt         1
           npband         5
            nstep        50
             nsym        24
           ntypat         2
              occ    2.000000  2.000000  2.000000  2.000000  2.000000  2.000000
                     2.000000  2.000000  2.000000  2.000000  2.000000  2.000000
                     2.000000  2.000000  2.000000  2.000000  2.000000  2.000000
                     2.000000  2.000000  2.000000  2.000000  2.000000  2.000000
                     2.000000  2.000000  2.000000  2.000000  0.000000  0.000000
                     0.000000  0.000000  0.000000  0.000000  0.000000  0.000000
                     0.000000  0.000000  0.000000  0.000000
        paral_kgb         1
          spgroup       215
           symrel    1  0  0   0  1  0   0  0  1      -1  0  0   0  1  0   0  0 -1
                    -1  0  0   0 -1  0   0  0  1       1  0  0   0 -1  0   0  0 -1
                     0  1  0   1  0  0   0  0  1       0 -1  0   1  0  0   0  0 -1
                     0 -1  0  -1  0  0   0  0  1       0  1  0  -1  0  0   0  0 -1
                     0  0  1   1  0  0   0  1  0       0  0 -1   1  0  0   0 -1  0
                     0  0 -1  -1  0  0   0  1  0       0  0  1  -1  0  0   0 -1  0
                     1  0  0   0  0  1   0  1  0      -1  0  0   0  0  1   0 -1  0
                    -1  0  0   0  0 -1   0  1  0       1  0  0   0  0 -1   0 -1  0
                     0  1  0   0  0  1   1  0  0       0 -1  0   0  0  1  -1  0  0
                     0 -1  0   0  0 -1   1  0  0       0  1  0   0  0 -1  -1  0  0
                     0  0  1   0  1  0   1  0  0       0  0 -1   0  1  0  -1  0  0
                     0  0 -1   0 -1  0   1  0  0       0  0  1   0 -1  0  -1  0  0
           toldfe    5.00000000E-09 Hartree
  tolsym=  1.00000000000000002E-008  1.00000000000000002E-008
            typat    1  1  1  1  1  1  1  1  1  1  2  2  2  2  2  2  2  2  2  2
                     2  2  2  2  2  2
         wfoptalg         4
           xangst   -1.3388430000E+00 -1.3388430000E+00 -1.3388430000E+00
                     0.0000000000E+00 -2.6678990000E+00  0.0000000000E+00
                     1.3388430000E+00 -1.3388430000E+00  1.3388430000E+00
                    -2.6678990000E+00  0.0000000000E+00  0.0000000000E+00
                    -1.3388430000E+00  1.3388430000E+00  1.3388430000E+00
                     0.0000000000E+00  0.0000000000E+00  2.6678990000E+00
                     0.0000000000E+00  0.0000000000E+00 -2.6678990000E+00
                     1.3388430000E+00  1.3388430000E+00 -1.3388430000E+00
                     2.6678990000E+00  0.0000000000E+00  0.0000000000E+00
                     0.0000000000E+00  2.6678990000E+00  0.0000000000E+00
                    -2.2082200000E+00 -2.2082200000E+00 -2.2082200000E+00
                    -8.5918800000E-01 -3.5520260000E+00  8.5918800000E-01
                     8.5918800000E-01 -3.5520260000E+00 -8.5918800000E-01
                     2.2082200000E+00 -2.2082200000E+00  2.2082200000E+00
                    -3.5520260000E+00 -8.5918800000E-01  8.5918800000E-01
                    -3.5520260000E+00  8.5918800000E-01 -8.5918800000E-01
                    -2.2082200000E+00  2.2082200000E+00  2.2082200000E+00
                     8.5918800000E-01  8.5918800000E-01  3.5520260000E+00
                    -8.5918800000E-01 -8.5918800000E-01  3.5520260000E+00
                    -8.5918800000E-01  8.5918800000E-01 -3.5520260000E+00
                     8.5918800000E-01 -8.5918800000E-01 -3.5520260000E+00
                     2.2082200000E+00  2.2082200000E+00 -2.2082200000E+00
                     3.5520260000E+00  8.5918800000E-01  8.5918800000E-01
                     3.5520260000E+00 -8.5918800000E-01 -8.5918800000E-01
                     8.5918800000E-01  3.5520260000E+00  8.5918800000E-01
                    -8.5918800000E-01  3.5520260000E+00 -8.5918800000E-01
[...]
  and was set to  1.00E-14.  Lowest was  -0.10E-13.
  Likely due to too low boxcut or too low ecut for pseudopotential core charge.
  scfcv : after setvtr, energies%e_hartree=   0.0000000000000000

 ITER STEP NUMBER     1
 vtorho : nnsclo_now=  2, note that nnsclo,dbl_nnsclo,istep=  0 0  1
 starting lobpcg, with nblockbd,mpi_enreg%nproc_band           8           5
 orthonormalize WFs
 orthonormalize WFs
-P-0000  leave_test : synchronization done...
 vtorho: loop on k-points and spins done in parallel
 Total charge density [el/Bohr^3]
,     Maximum=    2.1890E-01  at reduced coord.    0.1200    0.1200    0.8800
,     Minimum=    1.5311E-07  at reduced coord.    0.5300    0.4500    0.2700
 ETOT  1  -48.534897912467    -4.853E+01 1.904E-03 7.831E+02 3.565E-02 3.565E-02
 scprqt: <Vxc>= -3.2689408E-02 hartree

Simple mixing update:
  residual square of the potential :   259.66344400996365

[...]

 Pulay update with  1 previous iterations:
 mixing of old trial potential : alpha(m:m-4)=  0.742      0.258

[...]

 Pulay update with  7 previous iterations:
 mixing of old trial potential : alpha(m:m-4)=   1.12     -0.230E-01 -0.913E-01 -0.141E-01  0.718E-02

 ITER STEP NUMBER    12
 vtorho : nnsclo_now=  1, note that nnsclo,dbl_nnsclo,istep=  0 0 12
 starting lobpcg, with nblockbd,mpi_enreg%nproc_band           8           5
 orthonormalize WFs
-P-0000  leave_test : synchronization done...
 vtorho: loop on k-points and spins done in parallel
 Total charge density [el/Bohr^3]
,     Maximum=    2.1250E-01  at reduced coord.    0.1200    0.1200    0.8800
,     Minimum=    1.2040E-09  at reduced coord.    0.5600    0.4400    0.1300
 ETOT 12  -48.664230137928    -6.941E-11 1.198E-09 1.021E-08 5.886E-07 5.255E-04
 scprqt: <Vxc>= -2.9781420E-02 hartree

 At SCF step   12, etot is converged :
  for the second time, diff in etot=  6.941E-11 < toldfe=  5.000E-09
  forstrnps : usepaw=           0
forstrnps: loop on k-points and spins done in parallel
-P-0000  leave_test : synchronization done...
  strhar : before mpi_comm, harstr=  6.71575124230803372E-003  6.71575124230802331E-003  6.71575124231112066E-003   0.0000000000000000        0.0000000000000000        0.0000000000000000
  strhar : after mpi_comm, harstr=  6.71575124230803372E-003  6.71575124230802331E-003  6.71575124231112066E-003   0.0000000000000000        0.0000000000000000        0.0000000000000000
  strhar : ehart,ucvol=   126.19728454711647        39356.278270931391

 Cartesian components of stress tensor (hartree/bohr^3)
  sigma(1 1)=  5.31250150E-06  sigma(3 2)=  0.00000000E+00
  sigma(2 2)=  5.31250150E-06  sigma(3 1)=  0.00000000E+00
  sigma(3 3)=  5.31250150E-06  sigma(2 1)=  0.00000000E+00

 ioarr: writing density data
 ioarr: file name is 1xo_DEN
 ioarr: data written to disk file 1xo_DEN
-P-0000  leave_test : synchronization done...

 ----iterations are completed or convergence reached----

 outwf  : write wavefunction to file 1xo_WFK
-P-0000  leave_test : synchronization done...

 Cartesian components of stress tensor (hartree/bohr^3)
  sigma(1 1)=  5.31250150E-06  sigma(3 2)=  0.00000000E+00
  sigma(2 2)=  5.31250150E-06  sigma(3 1)=  0.00000000E+00
  sigma(3 3)=  5.31250150E-06  sigma(2 1)=  0.00000000E+00

-Cartesian components of stress tensor (GPa)         [Pressure= -1.5630E-01 GPa]
- sigma(1 1)=  1.56299164E-01  sigma(3 2)=  0.00000000E+00
- sigma(2 2)=  1.56299164E-01  sigma(3 1)=  0.00000000E+00
- sigma(3 3)=  1.56299164E-01  sigma(2 1)=  0.00000000E+00

== END DATASET(S) ==============================================================
  tolsym=  1.00000000000000002E-008  1.00000000000000002E-008

 -outvars: echo values of variables after computation  --------
            acell    3.4015067794E+01  3.4015067794E+01  3.4015067794E+01 Bohr
              amu    2.80855000E+01  1.00794000E+00
           diemac    2.00000000E+00
             ecut    1.00000000E+01 Hartree
           etotal   -4.8664230138E+01
           fftalg       401
      fft_opt_lob         2
            fcart   -3.0583587202E-04 -3.0583587202E-04 -3.0583587202E-04
                     4.1700083557E-21 -5.2554477098E-04  2.0850041779E-21
                     3.0583587202E-04 -3.0583587202E-04  3.0583587202E-04
                    -5.2554477098E-04 -0.0000000000E+00  2.0850041779E-21
                    -3.0583587202E-04  3.0583587202E-04  3.0583587202E-04
                     4.1700083557E-21 -0.0000000000E+00  5.2554477098E-04
                     4.1700083557E-21 -0.0000000000E+00 -5.2554477098E-04
                     3.0583587202E-04  3.0583587202E-04 -3.0583587202E-04
                     5.2554477098E-04 -0.0000000000E+00  2.0850041779E-21
                     4.1700083557E-21  5.2554477098E-04  2.0850041779E-21
                     4.1417434814E-04  4.1417434814E-04  4.1417434814E-04
                     3.8078426787E-04  4.1163482512E-04 -3.8078426787E-04
                    -3.8078426787E-04  4.1163482512E-04  3.8078426787E-04
                    -4.1417434814E-04  4.1417434814E-04 -4.1417434814E-04
                     4.1163482512E-04  3.8078426787E-04 -3.8078426787E-04
                     4.1163482512E-04 -3.8078426787E-04  3.8078426787E-04
                     4.1417434814E-04 -4.1417434814E-04 -4.1417434814E-04
                    -3.8078426787E-04 -3.8078426787E-04 -4.1163482512E-04
                     3.8078426787E-04  3.8078426787E-04 -4.1163482512E-04
                     3.8078426787E-04 -3.8078426787E-04  4.1163482512E-04
                    -3.8078426787E-04  3.8078426787E-04  4.1163482512E-04
                    -4.1417434814E-04 -4.1417434814E-04  4.1417434814E-04
                    -4.1163482512E-04 -3.8078426787E-04 -3.8078426787E-04
                    -4.1163482512E-04  3.8078426787E-04  3.8078426787E-04
                    -3.8078426787E-04 -4.1163482512E-04 -3.8078426787E-04
                     3.8078426787E-04 -4.1163482512E-04  3.8078426787E-04
           istwfk      2
              ixc         7
           kptopt         0
P           mkmem         1
            natom        26
            nband        40
            ngfft       100     100     100
             nkpt         1
           npband         5
            nstep        50
             nsym        24
           ntypat         2
              occ    2.000000  2.000000  2.000000  2.000000  2.000000  2.000000
                     2.000000  2.000000  2.000000  2.000000  2.000000  2.000000
                     2.000000  2.000000  2.000000  2.000000  2.000000  2.000000
                     2.000000  2.000000  2.000000  2.000000  2.000000  2.000000
                     2.000000  2.000000  2.000000  2.000000  0.000000  0.000000
                     0.000000  0.000000  0.000000  0.000000  0.000000  0.000000
                     0.000000  0.000000  0.000000  0.000000
        paral_kgb         1
          spgroup       215
           strten    5.3125014961E-06  5.3125014961E-06  5.3125014961E-06
                     0.0000000000E+00  0.0000000000E+00  0.0000000000E+00
           symrel    1  0  0   0  1  0   0  0  1      -1  0  0   0  1  0   0  0 -1
                    -1  0  0   0 -1  0   0  0  1       1  0  0   0 -1  0   0  0 -1
                     0  1  0   1  0  0   0  0  1       0 -1  0   1  0  0   0  0 -1
                     0 -1  0  -1  0  0   0  0  1       0  1  0  -1  0  0   0  0 -1
                     0  0  1   1  0  0   0  1  0       0  0 -1   1  0  0   0 -1  0
                     0  0 -1  -1  0  0   0  1  0       0  0  1  -1  0  0   0 -1  0
                     1  0  0   0  0  1   0  1  0      -1  0  0   0  0  1   0 -1  0
                    -1  0  0   0  0 -1   0  1  0       1  0  0   0  0 -1   0 -1  0
                     0  1  0   0  0  1   1  0  0       0 -1  0   0  0  1  -1  0  0
                     0 -1  0   0  0 -1   1  0  0       0  1  0   0  0 -1  -1  0  0
                     0  0  1   0  1  0   1  0  0       0  0 -1   0  1  0  -1  0  0
                     0  0 -1   0 -1  0   1  0  0       0  0  1   0 -1  0  -1  0  0
           toldfe    5.00000000E-09 Hartree
  tolsym=  1.00000000000000002E-008  1.00000000000000002E-008
            typat    1  1  1  1  1  1  1  1  1  1  2  2  2  2  2  2  2  2  2  2
                     2  2  2  2  2  2
         wfoptalg         4
           xangst   -1.3388430000E+00 -1.3388430000E+00 -1.3388430000E+00
                     0.0000000000E+00 -2.6678990000E+00  0.0000000000E+00
                     1.3388430000E+00 -1.3388430000E+00  1.3388430000E+00
                    -2.6678990000E+00  0.0000000000E+00  0.0000000000E+00
                    -1.3388430000E+00  1.3388430000E+00  1.3388430000E+00
                     0.0000000000E+00  0.0000000000E+00  2.6678990000E+00
                     0.0000000000E+00  0.0000000000E+00 -2.6678990000E+00
                     1.3388430000E+00  1.3388430000E+00 -1.3388430000E+00
                     2.6678990000E+00  0.0000000000E+00  0.0000000000E+00
                     0.0000000000E+00  2.6678990000E+00  0.0000000000E+00
                    -2.2082200000E+00 -2.2082200000E+00 -2.2082200000E+00
                    -8.5918800000E-01 -3.5520260000E+00  8.5918800000E-01
                     8.5918800000E-01 -3.5520260000E+00 -8.5918800000E-01
                     2.2082200000E+00 -2.2082200000E+00  2.2082200000E+00
                    -3.5520260000E+00 -8.5918800000E-01  8.5918800000E-01
                    -3.5520260000E+00  8.5918800000E-01 -8.5918800000E-01
                    -2.2082200000E+00  2.2082200000E+00  2.2082200000E+00
                     8.5918800000E-01  8.5918800000E-01  3.5520260000E+00
                    -8.5918800000E-01 -8.5918800000E-01  3.5520260000E+00
                    -8.5918800000E-01  8.5918800000E-01 -3.5520260000E+00
                     8.5918800000E-01 -8.5918800000E-01 -3.5520260000E+00
                     2.2082200000E+00  2.2082200000E+00 -2.2082200000E+00
                     3.5520260000E+00  8.5918800000E-01  8.5918800000E-01
                     3.5520260000E+00 -8.5918800000E-01 -8.5918800000E-01
                     8.5918800000E-01  3.5520260000E+00  8.5918800000E-01
                    -8.5918800000E-01  3.5520260000E+00 -8.5918800000E-01
            xcart   -2.5300466049E+00 -2.5300466049E+00 -2.5300466049E+00
                     0.0000000000E+00 -5.0415984602E+00  0.0000000000E+00
                     2.5300466049E+00 -2.5300466049E+00  2.5300466049E+00
                    -5.0415984602E+00  0.0000000000E+00  0.0000000000E+00
                    -2.5300466049E+00  2.5300466049E+00  2.5300466049E+00
                     0.0000000000E+00  0.0000000000E+00  5.0415984602E+00
                     0.0000000000E+00  0.0000000000E+00 -5.0415984602E+00
                     2.5300466049E+00  2.5300466049E+00 -2.5300466049E+00
                     5.0415984602E+00  0.0000000000E+00  0.0000000000E+00
                     0.0000000000E+00  5.0415984602E+00  0.0000000000E+00
                    -4.1729310412E+00 -4.1729310412E+00 -4.1729310412E+00
                    -1.6236300167E+00 -6.7123563569E+00  1.6236300167E+00
                     1.6236300167E+00 -6.7123563569E+00 -1.6236300167E+00
                     4.1729310412E+00 -4.1729310412E+00  4.1729310412E+00
                    -6.7123563569E+00 -1.6236300167E+00  1.6236300167E+00
                    -6.7123563569E+00  1.6236300167E+00 -1.6236300167E+00
                    -4.1729310412E+00  4.1729310412E+00  4.1729310412E+00
                     1.6236300167E+00  1.6236300167E+00  6.7123563569E+00
                    -1.6236300167E+00 -1.6236300167E+00  6.7123563569E+00
                    -1.6236300167E+00  1.6236300167E+00 -6.7123563569E+00
                     1.6236300167E+00 -1.6236300167E+00 -6.7123563569E+00
                     4.1729310412E+00  4.1729310412E+00 -4.1729310412E+00
                     6.7123563569E+00  1.6236300167E+00  1.6236300167E+00
                     6.7123563569E+00 -1.6236300167E+00 -1.6236300167E+00
                     1.6236300167E+00  6.7123563569E+00  1.6236300167E+00
                    -1.6236300167E+00  6.7123563569E+00 -1.6236300167E+00
             xred   -7.4380172348E-02 -7.4380172348E-02 -7.4380172348E-02
                     0.0000000000E+00 -1.4821662243E-01  0.0000000000E+00
                     7.4380172348E-02 -7.4380172348E-02  7.4380172348E-02
                    -1.4821662243E-01  0.0000000000E+00  0.0000000000E+00
                    -7.4380172348E-02  7.4380172348E-02  7.4380172348E-02
                     0.0000000000E+00  0.0000000000E+00  1.4821662243E-01
                     0.0000000000E+00  0.0000000000E+00 -1.4821662243E-01
                     7.4380172348E-02  7.4380172348E-02 -7.4380172348E-02
                     1.4821662243E-01  0.0000000000E+00  0.0000000000E+00
                     0.0000000000E+00  1.4821662243E-01  0.0000000000E+00
                    -1.2267889826E-01 -1.2267889826E-01 -1.2267889826E-01
                    -4.7732670312E-02 -1.9733479285E-01  4.7732670312E-02
                     4.7732670312E-02 -1.9733479285E-01 -4.7732670312E-02
                     1.2267889826E-01 -1.2267889826E-01  1.2267889826E-01
                    -1.9733479285E-01 -4.7732670312E-02  4.7732670312E-02
                    -1.9733479285E-01  4.7732670312E-02 -4.7732670312E-02
                    -1.2267889826E-01  1.2267889826E-01  1.2267889826E-01
                     4.7732670312E-02  4.7732670312E-02  1.9733479285E-01
                    -4.7732670312E-02 -4.7732670312E-02  1.9733479285E-01
                    -4.7732670312E-02  4.7732670312E-02 -1.9733479285E-01
                     4.7732670312E-02 -4.7732670312E-02 -1.9733479285E-01
                     1.2267889826E-01  1.2267889826E-01 -1.2267889826E-01
                     1.9733479285E-01  4.7732670312E-02  4.7732670312E-02
                     1.9733479285E-01 -4.7732670312E-02 -4.7732670312E-02
                     4.7732670312E-02  1.9733479285E-01  4.7732670312E-02
                    -4.7732670312E-02  1.9733479285E-01 -4.7732670312E-02
            znucl     14.00000    1.00000

 Suggested references for the acknowledgment of ABINIT usage.

 [1] Large scale ab initio calculations based on three levels of parallelization
 F. Bottin, S. Leroux, A. Knyazev, G. Zerah, Comput. Mat. Science 42, 329, (2008).
 Comment : in case paral_kgb is non-zero. Strong suggestion to cite this paper in your publications.

 [2] Ab initio pseudopotentials for electronic structure calculations of poly-atomic systems,
 using density-functional theory.
 M. Fuchs, M. Scheffler, Comput. Phys. Commun. 119, 67 (1999).
 Comment : Some pseudopotential generated using the FHI code were used.

 [3] ABINIT : First-principles approach of materials and nanosystem properties.
 X. Gonze, B. Amadon, P.-M. Anglade, J.-M. Beuken, F. Bottin, P. Boulanger, F. Bruneval,
 D. Caliste, R. Caracas, M. Cote, T. Deutsch, L. Genovese, Ph. Ghosez, M. Giantomassi
 S. Goedecker, D.R. Hamann, P. Hermet, F. Jollet, G. Jomard, S. Leroux, M. Mancini, S. Mazevet,
 M.J.T. Oliveira, G. Onida, Y. Pouillon, T. Rangel, G.-M. Rignanese, D. Sangalli, R. Shaltaf,
 M. Torrent, M.J. Verstraete, G. Zerah, J.W. Zwanziger
 Computer Phys. Comm. 180, 2582-2615 (2009).
 Comment : the third generic paper describing the ABINIT project.
 Note that a version of this paper, that is not formatted for Computer Phys. Comm.
 The licence allows the authors to put it on the Web.

 [4] A brief introduction to the ABINIT software package.
 X. Gonze, G.-M. Rignanese, M. Verstraete, J.-M. Beuken, Y. Pouillon, R. Caracas, F. Jollet,
 M. Torrent, G. Zerah, M. Mikami, Ph. Ghosez, M. Veithen, J.-Y. Raty, V. Olevano, F. Bruneval,
 L. Reining, R. Godby, G. Onida, D.R. Hamann, and D.C. Allan.
 Z. Kristallogr. 220, 558-562 (2005).
 Comment : the second generic paper describing the ABINIT project. Note that this paper
 should be cited especially if you are using the GW part of ABINIT, as several authors
 of this part are not in the list of authors of the first or third paper.
 Note that it should not redistributed (Copyright by Oldenburg Wissenshaftverlag,
 the licence allows the authors to put it on the Web).

 And optionally :

 [5] First-principles computation of material properties : the ABINIT software project.
 X. Gonze, J.-M. Beuken, R. Caracas, F. Detraux, M. Fuchs, G.-M. Rignanese, L. Sindic,
 M. Verstraete, G. Zerah, F. Jollet, M. Torrent, A. Roy, M. Mikami, Ph. Ghosez, J.-Y. Raty, D.C. Allan.
 Comment : the original paper describing the ABINIT project.
  testfi : enter
 filnam(1)="1.in"
 nam="testin_1.in"
 nam="testin_2.in"
 nam="testin_3.in"
 nam="testin_bigdft.in"
 nam="testin_etsf_io.in"
 nam="testin_wannier90.in"
  testfi : testin=            0

 Calculation completed.
.Delivered    4 WARNINGs and   0 COMMENTs to log file.