.Version 6.2.2  of ABINIT

 ABINIT is a project of the Universite Catholique de Louvain,
 Corning Inc. and other collaborators, see ~abinit/doc/developers/contributors.txt .
 Please read ~abinit/doc/users/acknowledgments.html for suggested
 acknowledgments of the ABINIT effort.

.Starting date : Wed 25 Aug 2010.

- input  file    -> test.in
- output file    -> testx.out
- root for input  files -> testxi
- root for output files -> testxo

 Symmetries : the space group has not been recognized
   intxc =         0  ionmov =         0    iscf =         7 xclevel =         2
  lmnmax =        18   lnmax =         6   mband =        60  mffmem =         1
P  mgfft =        60   mkmem =         4 mpssoang=         3     mpw =      1961
  mqgrid =      3001   natom =         4    nfft =     54000    nkpt =        32
  nloalg =         4  nspden =         4 nspinor =         2  nsppol =         1
    nsym =         2  n1xccc =         1  ntypat =         2  occopt =         7
 PAW method is used; the additional fine FFT grid is defined by:
   mgfftf=        80    nfftf =    128000
  Rough estimation (10% accuracy) of disk space for files :

 -outvars: echo values of preprocessed input variables --------
            acell    7.9200000000E+00  7.9200000000E+00  7.9200000000E+00 Bohr
              amu    5.86900000E+01  1.59994000E+01
      chksymbreak         0
             ecut    3.00000000E+01 Hartree
             iscf         7
              ixc        11
              kpt    1.25000000E-01  1.25000000E-01  2.50000000E-01
                     3.75000000E-01  1.25000000E-01  2.50000000E-01
                    -3.75000000E-01  1.25000000E-01  2.50000000E-01
                    -1.25000000E-01  1.25000000E-01  2.50000000E-01
                     1.25000000E-01  3.75000000E-01  2.50000000E-01
                     3.75000000E-01  3.75000000E-01  2.50000000E-01
                    -3.75000000E-01  3.75000000E-01  2.50000000E-01
                    -1.25000000E-01  3.75000000E-01  2.50000000E-01
                     1.25000000E-01 -3.75000000E-01  2.50000000E-01
                     3.75000000E-01 -3.75000000E-01  2.50000000E-01
                    -3.75000000E-01 -3.75000000E-01  2.50000000E-01
                    -1.25000000E-01 -3.75000000E-01  2.50000000E-01
                     1.25000000E-01 -1.25000000E-01  2.50000000E-01
                     3.75000000E-01 -1.25000000E-01  2.50000000E-01
                    -3.75000000E-01 -1.25000000E-01  2.50000000E-01
                    -1.25000000E-01 -1.25000000E-01  2.50000000E-01
                     1.25000000E-01  1.25000000E-01 -2.50000000E-01
                     3.75000000E-01  1.25000000E-01 -2.50000000E-01
                    -3.75000000E-01  1.25000000E-01 -2.50000000E-01
                    -1.25000000E-01  1.25000000E-01 -2.50000000E-01
                     1.25000000E-01  3.75000000E-01 -2.50000000E-01
                     3.75000000E-01  3.75000000E-01 -2.50000000E-01
                    -3.75000000E-01  3.75000000E-01 -2.50000000E-01
                    -1.25000000E-01  3.75000000E-01 -2.50000000E-01
                     1.25000000E-01 -3.75000000E-01 -2.50000000E-01
                     3.75000000E-01 -3.75000000E-01 -2.50000000E-01
                    -3.75000000E-01 -3.75000000E-01 -2.50000000E-01
                    -1.25000000E-01 -3.75000000E-01 -2.50000000E-01
                     1.25000000E-01 -1.25000000E-01 -2.50000000E-01
                     3.75000000E-01 -1.25000000E-01 -2.50000000E-01
                    -3.75000000E-01 -1.25000000E-01 -2.50000000E-01
                    -1.25000000E-01 -1.25000000E-01 -2.50000000E-01
          kptrlen    2.24011428E+01
           kptopt         4
         kptrlatt    4  0  0   0  4  0   0  0  2
P           mkmem         4
            natom         4
            nband        60
            ngfft        30      30      60
          ngfftdg        40      40      80
             nkpt        32
           nspden         4
          nspinor         2
            nstep       120
             nsym         2
           ntypat         2
              occ    1.000000  1.000000  1.000000  1.000000  1.000000  1.000000
                     1.000000  1.000000  1.000000  1.000000  1.000000  1.000000
                     1.000000  1.000000  1.000000  1.000000  1.000000  1.000000
                     1.000000  1.000000  1.000000  1.000000  1.000000  1.000000
                     1.000000  1.000000  1.000000  1.000000  1.000000  1.000000
                     1.000000  1.000000  0.000000  0.000000  0.000000  0.000000
                     0.000000  0.000000  0.000000  0.000000  0.000000  0.000000
                     0.000000  0.000000  0.000000  0.000000  0.000000  0.000000
                     0.000000  0.000000  0.000000  0.000000  0.000000  0.000000
                     0.000000  0.000000  0.000000  0.000000  0.000000  0.000000
                     1.000000  1.000000  1.000000  1.000000  1.000000  1.000000
                     1.000000  1.000000  1.000000  1.000000  1.000000  1.000000
                     1.000000  1.000000  1.000000  1.000000  1.000000  1.000000
                     1.000000  1.000000  1.000000  1.000000  1.000000  1.000000
                     1.000000  1.000000  1.000000  1.000000  1.000000  1.000000
                     1.000000  1.000000  0.000000  0.000000  0.000000  0.000000
                     0.000000  0.000000  0.000000  0.000000  0.000000  0.000000
                     0.000000  0.000000  0.000000  0.000000  0.000000  0.000000
                     0.000000  0.000000  0.000000  0.000000  0.000000  0.000000
                     0.000000  0.000000  0.000000  0.000000  0.000000  0.000000
                     1.000000  1.000000  1.000000  1.000000  1.000000  1.000000
                     1.000000  1.000000  1.000000  1.000000  1.000000  1.000000
                     1.000000  1.000000  1.000000  1.000000  1.000000  1.000000
                     1.000000  1.000000  1.000000  1.000000  1.000000  1.000000
                     1.000000  1.000000  1.000000  1.000000  1.000000  1.000000
                     1.000000  1.000000  0.000000  0.000000  0.000000  0.000000
                     0.000000  0.000000  0.000000  0.000000  0.000000  0.000000
                     0.000000  0.000000  0.000000  0.000000  0.000000  0.000000
                     0.000000  0.000000  0.000000  0.000000  0.000000  0.000000
                     0.000000  0.000000  0.000000  0.000000  0.000000  0.000000
                     1.000000  1.000000  1.000000  1.000000  1.000000  1.000000
                     1.000000  1.000000  1.000000  1.000000  1.000000  1.000000
                     1.000000  1.000000  1.000000  1.000000  1.000000  1.000000
                     1.000000  1.000000  1.000000  1.000000  1.000000  1.000000
                     1.000000  1.000000  1.000000  1.000000  1.000000  1.000000
                     1.000000  1.000000  0.000000  0.000000  0.000000  0.000000
                     0.000000  0.000000  0.000000  0.000000  0.000000  0.000000
                     0.000000  0.000000  0.000000  0.000000  0.000000  0.000000
                     0.000000  0.000000  0.000000  0.000000  0.000000  0.000000
                     0.000000  0.000000  0.000000  0.000000  0.000000  0.000000
                     1.000000  1.000000  1.000000  1.000000  1.000000  1.000000
                     1.000000  1.000000  1.000000  1.000000  1.000000  1.000000
                     1.000000  1.000000  1.000000  1.000000  1.000000  1.000000
                     1.000000  1.000000  1.000000  1.000000  1.000000  1.000000
                     1.000000  1.000000  1.000000  1.000000  1.000000  1.000000
                     1.000000  1.000000  0.000000  0.000000  0.000000  0.000000
                     0.000000  0.000000  0.000000  0.000000  0.000000  0.000000
                     0.000000  0.000000  0.000000  0.000000  0.000000  0.000000
                     0.000000  0.000000  0.000000  0.000000  0.000000  0.000000
                     0.000000  0.000000  0.000000  0.000000  0.000000  0.000000
                     1.000000  1.000000  1.000000  1.000000  1.000000  1.000000
                     1.000000  1.000000  1.000000  1.000000  1.000000  1.000000
                     1.000000  1.000000  1.000000  1.000000  1.000000  1.000000
                     1.000000  1.000000  1.000000  1.000000  1.000000  1.000000
                     1.000000  1.000000  1.000000  1.000000  1.000000  1.000000
                     1.000000  1.000000  0.000000  0.000000  0.000000  0.000000
                     0.000000  0.000000  0.000000  0.000000  0.000000  0.000000
                     0.000000  0.000000  0.000000  0.000000  0.000000  0.000000
                     0.000000  0.000000  0.000000  0.000000  0.000000  0.000000
                     0.000000  0.000000  0.000000  0.000000  0.000000  0.000000
                     1.000000  1.000000  1.000000  1.000000  1.000000  1.000000
[...]
                     1.000000  1.000000  0.000000  0.000000  0.000000  0.000000
                     0.000000  0.000000  0.000000  0.000000  0.000000  0.000000
                     0.000000  0.000000  0.000000  0.000000  0.000000  0.000000
                     0.000000  0.000000  0.000000  0.000000  0.000000  0.000000
                     0.000000  0.000000  0.000000  0.000000  0.000000  0.000000
                     1.000000  1.000000  1.000000  1.000000  1.000000  1.000000
                     1.000000  1.000000  1.000000  1.000000  1.000000  1.000000
                     1.000000  1.000000  1.000000  1.000000  1.000000  1.000000
                     1.000000  1.000000  1.000000  1.000000  1.000000  1.000000
                     1.000000  1.000000  1.000000  1.000000  1.000000  1.000000
                     1.000000  1.000000  0.000000  0.000000  0.000000  0.000000
                     0.000000  0.000000  0.000000  0.000000  0.000000  0.000000
                     0.000000  0.000000  0.000000  0.000000  0.000000  0.000000
                     0.000000  0.000000  0.000000  0.000000  0.000000  0.000000
                     0.000000  0.000000  0.000000  0.000000  0.000000  0.000000
           occopt         7
        pawecutdg    6.00000000E+01 Hartree
        pawprtvol         3
        prtdensph         1
           ratsph    2.31080032E+00  1.21105161E+00 Bohr
            rprim    0.0000000000E+00  5.0000000000E-01  5.0000000000E-01
                     5.0000000000E-01  0.0000000000E+00  5.0000000000E-01
                     1.0000000000E+00  1.0000000000E+00  0.0000000000E+00
           shiftk    5.00000000E-01  5.00000000E-01  5.00000000E-01
           spinat    0.0000000000E+00  0.0000000000E+00  1.0000000000E+00
                     0.0000000000E+00  0.0000000000E+00 -1.0000000000E+00
                     0.0000000000E+00  0.0000000000E+00  0.0000000000E+00
                     0.0000000000E+00  0.0000000000E+00  0.0000000000E+00
           symafm    1 -1
            tnons    0.0000000  0.0000000  0.0000000     0.0000000  0.0000000  0.5000000
           toldfe    1.00000000E-08 Hartree
           tsmear    9.50044626E-04 Hartree
            typat    1  1  2  2
[...]
 Magnetization (spin up - spin down) [el/Bohr^3]
,     Maximum=    1.9677E-01  at reduced coord.    0.0000    0.0000    0.0000
,Next maximum=    1.9677E-01  at reduced coord.    0.0000    0.0000    0.5000
,     Minimum=    8.9718E-06  at reduced coord.    0.9500    0.5000    0.7500
,Next minimum=    8.9754E-06  at reduced coord.    0.0500    0.5000    0.7500
 Relative magnetization (=zeta, between -1 and 1)
,     Maximum=    2.5848E-01  at reduced coord.    0.1750    0.8250    0.0875
,Next maximum=    2.5848E-01  at reduced coord.    0.8250    0.1750    0.5875
,     Minimum=    9.5618E-05  at reduced coord.    0.5000    0.5000    0.2500
,Next minimum=    9.5662E-05  at reduced coord.    0.5000    0.5000    0.7500

 Components of total free energy (in Hartree) :

    Kinetic energy  =  2.20642047535480E+01
    Hartree energy  =  2.06745078904195E+01
    XC energy       = -1.92148750372670E+01
    Ewald energy    = -9.52410591238850E+01
    PspCore energy  =  4.34689993775436E+00
    Loc. psp. energy= -8.09551692290382E+01
    Spherical terms =  3.65261561200253E+01
    >>>>> Internal E= -1.11799334688443E+02

    -kT*entropy     = -2.74973971900238E-16
    >>>>>>>>> Etotal= -1.11799334688443E+02

 "Double-counting" decomposition of free energy:
    Band energy     =  4.07848253660197E+00
    Ewald energy    = -9.52410591238850E+01
    PspCore energy  =  4.34689993775436E+00
    Dble-C XC-energy= -1.52351656435140E+01
    Spherical terms = -9.75754077654875E+00
    >>>>> Internal E= -1.11808383069591E+02

    -kT*entropy     = -2.74973971900238E-16
    >>>> Etotal (DC)= -1.11808383069591E+02

  >Total energy in eV           = -3.04221461149984E+03
  >Total DC energy in eV        = -3.04246083047258E+03

 Cartesian components of stress tensor (hartree/bohr^3)
  sigma(1 1)=  1.09724174E-04  sigma(3 2)=  1.28990780E-05
  sigma(2 2)=  1.09729979E-04  sigma(3 1)=  1.29002547E-05
  sigma(3 3)=  1.01861182E-04  sigma(2 1)=  2.56470644E-05

-Cartesian components of stress tensor (GPa)         [Pressure= -3.1511E+00 GPa]
- sigma(1 1)=  3.22819610E+00  sigma(3 2)=  3.79503913E-01
- sigma(2 2)=  3.22836690E+00  sigma(3 1)=  3.79538532E-01
- sigma(3 3)=  2.99685893E+00  sigma(2 1)=  7.54562559E-01

== END DATASET(S) ==============================================================

 -outvars: echo values of variables after computation  --------
            acell    7.9200000000E+00  7.9200000000E+00  7.9200000000E+00 Bohr
              amu    5.86900000E+01  1.59994000E+01
      chksymbreak         0
             ecut    3.00000000E+01 Hartree
           etotal   -1.1179933469E+02
            fcart   -6.9624844562E-08 -6.4497907172E-08 -5.5454906511E-09
                    -6.9624844562E-08 -6.4497907172E-08 -5.5454906511E-09
                     6.9624844562E-08  6.4497907172E-08  5.5454906511E-09
                     6.9624844562E-08  6.4497907172E-08  5.5454906511E-09
             iscf         7
              ixc        11
              kpt    1.25000000E-01  1.25000000E-01  2.50000000E-01
                     3.75000000E-01  1.25000000E-01  2.50000000E-01
                    -3.75000000E-01  1.25000000E-01  2.50000000E-01
                    -1.25000000E-01  1.25000000E-01  2.50000000E-01
                     1.25000000E-01  3.75000000E-01  2.50000000E-01
                     3.75000000E-01  3.75000000E-01  2.50000000E-01
                    -3.75000000E-01  3.75000000E-01  2.50000000E-01
                    -1.25000000E-01  3.75000000E-01  2.50000000E-01
                     1.25000000E-01 -3.75000000E-01  2.50000000E-01
                     3.75000000E-01 -3.75000000E-01  2.50000000E-01
                    -3.75000000E-01 -3.75000000E-01  2.50000000E-01
                    -1.25000000E-01 -3.75000000E-01  2.50000000E-01
                     1.25000000E-01 -1.25000000E-01  2.50000000E-01
                     3.75000000E-01 -1.25000000E-01  2.50000000E-01
                    -3.75000000E-01 -1.25000000E-01  2.50000000E-01
                    -1.25000000E-01 -1.25000000E-01  2.50000000E-01
                     1.25000000E-01  1.25000000E-01 -2.50000000E-01
                     3.75000000E-01  1.25000000E-01 -2.50000000E-01
                    -3.75000000E-01  1.25000000E-01 -2.50000000E-01
                    -1.25000000E-01  1.25000000E-01 -2.50000000E-01
                     1.25000000E-01  3.75000000E-01 -2.50000000E-01
                     3.75000000E-01  3.75000000E-01 -2.50000000E-01
                    -3.75000000E-01  3.75000000E-01 -2.50000000E-01
                    -1.25000000E-01  3.75000000E-01 -2.50000000E-01
                     1.25000000E-01 -3.75000000E-01 -2.50000000E-01
                     3.75000000E-01 -3.75000000E-01 -2.50000000E-01
                    -3.75000000E-01 -3.75000000E-01 -2.50000000E-01
                    -1.25000000E-01 -3.75000000E-01 -2.50000000E-01
                     1.25000000E-01 -1.25000000E-01 -2.50000000E-01
                     3.75000000E-01 -1.25000000E-01 -2.50000000E-01
                    -3.75000000E-01 -1.25000000E-01 -2.50000000E-01
                    -1.25000000E-01 -1.25000000E-01 -2.50000000E-01
          kptrlen    2.24011428E+01
           kptopt         4
         kptrlatt    4  0  0   0  4  0   0  0  2
P           mkmem         4
            natom         4
            nband        60
            ngfft        30      30      60
          ngfftdg        40      40      80
             nkpt        32
           nspden         4
          nspinor         2
            nstep       120
             nsym         2
           ntypat         2
              occ    1.000000  1.000000  1.000000  1.000000  1.000000  1.000000
                     1.000000  1.000000  1.000000  1.000000  1.000000  1.000000
                     1.000000  1.000000  1.000000  1.000000  1.000000  1.000000
                     1.000000  1.000000  1.000000  1.000000  1.000000  1.000000
                     1.000000  1.000000  1.000000  1.000000  1.000000  1.000000
                     1.000000  1.000000  0.000000  0.000000  0.000000  0.000000
                     0.000000  0.000000  0.000000  0.000000  0.000000  0.000000
                     0.000000  0.000000  0.000000  0.000000  0.000000  0.000000
                     0.000000  0.000000  0.000000  0.000000  0.000000  0.000000
                     0.000000  0.000000  0.000000  0.000000  0.000000  0.000000
                     1.000000  1.000000  1.000000  1.000000  1.000000  1.000000
                     1.000000  1.000000  1.000000  1.000000  1.000000  1.000000
                     1.000000  1.000000  1.000000  1.000000  1.000000  1.000000
                     1.000000  1.000000  1.000000  1.000000  1.000000  1.000000
                     1.000000  1.000000  1.000000  1.000000  1.000000  1.000000
                     1.000000  1.000000  0.000000  0.000000  0.000000  0.000000
                     0.000000  0.000000  0.000000  0.000000  0.000000  0.000000
                     0.000000  0.000000  0.000000  0.000000  0.000000  0.000000
                     0.000000  0.000000  0.000000  0.000000  0.000000  0.000000
                     0.000000  0.000000  0.000000  0.000000  0.000000  0.000000
                     1.000000  1.000000  1.000000  1.000000  1.000000  1.000000
                     1.000000  1.000000  1.000000  1.000000  1.000000  1.000000
                     1.000000  1.000000  1.000000  1.000000  1.000000  1.000000
                     1.000000  1.000000  1.000000  1.000000  1.000000  1.000000
                     1.000000  1.000000  1.000000  1.000000  1.000000  1.000000
                     1.000000  1.000000  0.000000  0.000000  0.000000  0.000000
                     0.000000  0.000000  0.000000  0.000000  0.000000  0.000000
                     0.000000  0.000000  0.000000  0.000000  0.000000  0.000000
                     0.000000  0.000000  0.000000  0.000000  0.000000  0.000000
                     0.000000  0.000000  0.000000  0.000000  0.000000  0.000000
                     1.000000  1.000000  1.000000  1.000000  1.000000  1.000000
                     1.000000  1.000000  1.000000  1.000000  1.000000  1.000000
                     1.000000  1.000000  1.000000  1.000000  1.000000  1.000000
                     1.000000  1.000000  1.000000  1.000000  1.000000  1.000000
                     1.000000  1.000000  1.000000  1.000000  1.000000  1.000000
                     1.000000  1.000000  0.000000  0.000000  0.000000  0.000000
                     0.000000  0.000000  0.000000  0.000000  0.000000  0.000000
                     0.000000  0.000000  0.000000  0.000000  0.000000  0.000000
                     0.000000  0.000000  0.000000  0.000000  0.000000  0.000000
                     0.000000  0.000000  0.000000  0.000000  0.000000  0.000000
                     1.000000  1.000000  1.000000  1.000000  1.000000  1.000000
                     1.000000  1.000000  1.000000  1.000000  1.000000  1.000000
                     1.000000  1.000000  1.000000  1.000000  1.000000  1.000000
                     1.000000  1.000000  1.000000  1.000000  1.000000  1.000000
                     1.000000  1.000000  1.000000  1.000000  1.000000  1.000000
                     1.000000  1.000000  0.000000  0.000000  0.000000  0.000000
                     0.000000  0.000000  0.000000  0.000000  0.000000  0.000000
                     0.000000  0.000000  0.000000  0.000000  0.000000  0.000000
                     0.000000  0.000000  0.000000  0.000000  0.000000  0.000000
                     0.000000  0.000000  0.000000  0.000000  0.000000  0.000000
                     1.000000  1.000000  1.000000  1.000000  1.000000  1.000000
                     1.000000  1.000000  1.000000  1.000000  1.000000  1.000000
                     1.000000  1.000000  1.000000  1.000000  1.000000  1.000000
                     1.000000  1.000000  1.000000  1.000000  1.000000  1.000000
                     1.000000  1.000000  1.000000  1.000000  1.000000  1.000000
                     1.000000  1.000000  0.000000  0.000000  0.000000  0.000000
                     0.000000  0.000000  0.000000  0.000000  0.000000  0.000000
                     0.000000  0.000000  0.000000  0.000000  0.000000  0.000000
                     0.000000  0.000000  0.000000  0.000000  0.000000  0.000000
                     0.000000  0.000000  0.000000  0.000000  0.000000  0.000000
                     1.000000  1.000000  1.000000  1.000000  1.000000  1.000000
[...]
                     1.000000  1.000000  0.000000  0.000000  0.000000  0.000000
                     0.000000  0.000000  0.000000  0.000000  0.000000  0.000000
                     0.000000  0.000000  0.000000  0.000000  0.000000  0.000000
                     0.000000  0.000000  0.000000  0.000000  0.000000  0.000000
                     0.000000  0.000000  0.000000  0.000000  0.000000  0.000000
                     1.000000  1.000000  1.000000  1.000000  1.000000  1.000000
                     1.000000  1.000000  1.000000  1.000000  1.000000  1.000000
                     1.000000  1.000000  1.000000  1.000000  1.000000  1.000000
                     1.000000  1.000000  1.000000  1.000000  1.000000  1.000000
                     1.000000  1.000000  1.000000  1.000000  1.000000  1.000000
                     1.000000  1.000000  0.000000  0.000000  0.000000  0.000000
                     0.000000  0.000000  0.000000  0.000000  0.000000  0.000000
                     0.000000  0.000000  0.000000  0.000000  0.000000  0.000000
                     0.000000  0.000000  0.000000  0.000000  0.000000  0.000000
                     0.000000  0.000000  0.000000  0.000000  0.000000  0.000000
           occopt         7
        pawecutdg    6.00000000E+01 Hartree
        pawprtvol         3
        prtdensph         1
           ratsph    2.31080032E+00  1.21105161E+00 Bohr
            rprim    0.0000000000E+00  5.0000000000E-01  5.0000000000E-01
                     5.0000000000E-01  0.0000000000E+00  5.0000000000E-01
                     1.0000000000E+00  1.0000000000E+00  0.0000000000E+00
           shiftk    5.00000000E-01  5.00000000E-01  5.00000000E-01
           spinat    0.0000000000E+00  0.0000000000E+00  1.0000000000E+00
                     0.0000000000E+00  0.0000000000E+00 -1.0000000000E+00
                     0.0000000000E+00  0.0000000000E+00  0.0000000000E+00
                     0.0000000000E+00  0.0000000000E+00  0.0000000000E+00
           strten    1.0972417363E-04  1.0972997910E-04  1.0186118190E-04
                     1.2899077991E-05  1.2900254680E-05  2.5647064414E-05
           symafm    1 -1
            tnons    0.0000000  0.0000000  0.0000000     0.0000000  0.0000000  0.5000000
           toldfe    1.00000000E-08 Hartree
           tsmear    9.50044626E-04 Hartree
            typat    1  1  2  2
           useylm         1
              wtk      0.03125    0.03125    0.03125    0.03125    0.03125    0.03125
                       0.03125    0.03125    0.03125    0.03125    0.03125    0.03125
                       0.03125    0.03125    0.03125    0.03125    0.03125    0.03125
                       0.03125    0.03125    0.03125    0.03125    0.03125    0.03125
                       0.03125    0.03125    0.03125    0.03125    0.03125    0.03125
                       0.03125    0.03125
           xangst    0.0000000000E+00  0.0000000000E+00  0.0000000000E+00
                     2.0955417460E+00  2.0955417460E+00  0.0000000000E+00
                     2.0955417460E+00  2.0955417460E+00  2.0955417460E+00
                     4.1910834920E+00  4.1910834920E+00  2.0955417460E+00
            xcart    0.0000000000E+00  0.0000000000E+00  0.0000000000E+00
                     3.9600000000E+00  3.9600000000E+00  0.0000000000E+00
                     3.9600000000E+00  3.9600000000E+00  3.9600000000E+00
                     7.9200000000E+00  7.9200000000E+00  3.9600000000E+00
             xred    0.0000000000E+00  0.0000000000E+00  0.0000000000E+00
                     0.0000000000E+00  0.0000000000E+00  5.0000000000E-01
                     5.0000000000E-01  5.0000000000E-01  2.5000000000E-01
                     5.0000000000E-01  5.0000000000E-01  7.5000000000E-01
            znucl     28.00000    8.00000

- Timing analysis has been suppressed with timopt=0

 Suggested references for the acknowledgment of ABINIT usage.

 [1] Implementation of the Projector Augmented-Wave Method in the ABINIT code.
 M. Torrent, F. Jollet, F. Bottin, G. Zerah, and X. Gonze Comput. Mat. Science 42, 337, (2008).
 Comment : PAW calculations. Strong suggestiong to cite this paper.

 [2] ABINIT : First-principles approach of materials and nanosystem properties.
 X. Gonze, B. Amadon, P.-M. Anglade, J.-M. Beuken, F. Bottin, P. Boulanger, F. Bruneval,
 D. Caliste, R. Caracas, M. Cote, T. Deutsch, L. Genovese, Ph. Ghosez, M. Giantomassi
 S. Goedecker, D.R. Hamann, P. Hermet, F. Jollet, G. Jomard, S. Leroux, M. Mancini, S. Mazevet,
 M.J.T. Oliveira, G. Onida, Y. Pouillon, T. Rangel, G.-M. Rignanese, D. Sangalli, R. Shaltaf,
 M. Torrent, M.J. Verstraete, G. Zerah, J.W. Zwanziger
 Computer Phys. Comm. 180, 2582-2615 (2009).
 Comment : the third generic paper describing the ABINIT project.
 Note that a version of this paper, that is not formatted for Computer Phys. Comm.
 The licence allows the authors to put it on the Web.

 [3] A brief introduction to the ABINIT software package.
 X. Gonze, G.-M. Rignanese, M. Verstraete, J.-M. Beuken, Y. Pouillon, R. Caracas, F. Jollet,
 M. Torrent, G. Zerah, M. Mikami, Ph. Ghosez, M. Veithen, J.-Y. Raty, V. Olevano, F. Bruneval,
 L. Reining, R. Godby, G. Onida, D.R. Hamann, and D.C. Allan.
 Z. Kristallogr. 220, 558-562 (2005).
 Comment : the second generic paper describing the ABINIT project. Note that this paper
 should be cited especially if you are using the GW part of ABINIT, as several authors
 of this part are not in the list of authors of the first or third paper.
 Note that it should not redistributed (Copyright by Oldenburg Wissenshaftverlag,
 the licence allows the authors to put it on the Web).

 And optionally :

 [4] First-principles computation of material properties : the ABINIT software project.
 X. Gonze, J.-M. Beuken, R. Caracas, F. Detraux, M. Fuchs, G.-M. Rignanese, L. Sindic,
 M. Verstraete, G. Zerah, F. Jollet, M. Torrent, A. Roy, M. Mikami, Ph. Ghosez, J.-Y. Raty, D.C. Allan.
 Comment : the original paper describing the ABINIT project.

 [5] Fast radix 2, 3, 4 and 5 kernels for Fast Fourier Transformations
 on computers with overlapping multiply-add instructions.
 S. Goedecker, SIAM J. on Scientific Computing 18, 1605 (1997).
-

 Calculation completed.
.Delivered    5 WARNINGs and   0 COMMENTs to log file.