.Version 9.4.2 of ABINIT

 ABINIT is a project of the Universite Catholique de Louvain,
 Corning Inc. and other collaborators, see ~abinit/doc/developers/contributors.txt .
 acknowledgments of the ABINIT effort.

.Starting date : Fri 11 Jun 2021.
- ( at 13h03 )

- input  file    -> dia.in
- output file    -> dia.out
- root for input  files -> xi
- root for output files -> xo

- inpspheads : Reading pseudopotential header in XML form from
-   ../C.xml

 Symmetries : space group P-3 m 1 (#164); Bravais hP (primitive hexag.)
     intxc =       0    ionmov =       0      iscf =      17    lmnmax =       8
     lnmax =       4     mgfft =     450  mpssoang =       2    mqgrid =   22407
     natom =      36  nloc_mem =       2    nspden =       1   nspinor =       1
    nsppol =       1      nsym =      12    n1xccc =       1    ntypat =       1
    occopt =       1   xclevel =       2
-    mband =          77        mffmem =           1         mkmem =           4
       mpw =       13462          nfft =      259200          nkpt =          19
Pmy_natom=         6
 PAW method is used; the additional fine FFT grid is defined by:
   mgfftf=       450    nfftf =    328050
 For the susceptibility and dielectric matrices, or tddft :
   mgfft =       250  nbnd_in_blk=    10    nfft =     56250     npw =       305
  Rough estimation (10% accuracy) of disk space for files :

------------- Echo of variables that govern the present computation ------------
-
- outvars: echo of selected default values
-   iomode0 =  0 , fftalg0 =512 , wfoptalg0 = 10
-
- outvars: echo of global parameters not present in the input file
-  max_nthreads =    0
-
 -outvars: echo values of preprocessed input variables --------
            acell      1.8897261329E+00  1.8897261329E+00  1.8897261329E+00 Bohr
              amu      1.20110000E+01
          chkexit           1
          chkprim           0
      chksymtnons           0
           diemac      3.00000000E+00
           diemix      1.00000000E+00
             ecut      2.93994603E+01 Hartree
-          fftalg         512
           iprcel          45
           istwfk        2    0    0    0    0    0    3    0    0    0
                         0    0    0    0    0    0    0    0    0
              ixc          11
              kpt      0.00000000E+00  0.00000000E+00  0.00000000E+00
                       8.33333333E-02  0.00000000E+00  0.00000000E+00
                       1.66666667E-01  0.00000000E+00  0.00000000E+00
                       2.50000000E-01  0.00000000E+00  0.00000000E+00
                       3.33333333E-01  0.00000000E+00  0.00000000E+00
                       4.16666667E-01  0.00000000E+00  0.00000000E+00
                       5.00000000E-01  0.00000000E+00  0.00000000E+00
                       8.33333333E-02  8.33333333E-02  0.00000000E+00
                       1.66666667E-01  8.33333333E-02  0.00000000E+00
                       2.50000000E-01  8.33333333E-02  0.00000000E+00
                       3.33333333E-01  8.33333333E-02  0.00000000E+00
                       4.16666667E-01  8.33333333E-02  0.00000000E+00
                       1.66666667E-01  1.66666667E-01  0.00000000E+00
                       2.50000000E-01  1.66666667E-01  0.00000000E+00
                       3.33333333E-01  1.66666667E-01  0.00000000E+00
                       4.16666667E-01  1.66666667E-01  0.00000000E+00
                       2.50000000E-01  2.50000000E-01  0.00000000E+00
                       3.33333333E-01  2.50000000E-01  0.00000000E+00
                       3.33333333E-01  3.33333333E-01  0.00000000E+00
         kptrlatt       12    0    0      0   12    0      0    0    1
          kptrlen      5.72866523E+01
P           mkmem           4
            natom          36
            nband          77
            ngfft          24      24     450
          ngfftdg          27      27     450
             nkpt          19
            nstep         300
             nsym          12
           ntypat           1
              occ      2.000000  2.000000  2.000000  2.000000  2.000000  2.000000
                       2.000000  2.000000  2.000000  2.000000  2.000000  2.000000
                       2.000000  2.000000  2.000000  2.000000  2.000000  2.000000
                       2.000000  2.000000  2.000000  2.000000  2.000000  2.000000
                       2.000000  2.000000  2.000000  2.000000  2.000000  2.000000
                       2.000000  2.000000  2.000000  2.000000  2.000000  2.000000
                       2.000000  2.000000  2.000000  2.000000  2.000000  2.000000
                       2.000000  2.000000  2.000000  2.000000  2.000000  2.000000
                       2.000000  2.000000  2.000000  2.000000  2.000000  2.000000
                       2.000000  2.000000  2.000000  2.000000  2.000000  2.000000
                       2.000000  2.000000  2.000000  2.000000  2.000000  2.000000
                       2.000000  2.000000  2.000000  2.000000  2.000000  2.000000
                       0.000000  0.000000  0.000000  0.000000  0.000000
        pawecutdg      3.12369266E+01 Hartree
            rprim      2.5262325649E+00  0.0000000000E+00  0.0000000000E+00
                      -1.2631162825E+00  2.1877815771E+00  0.0000000000E+00
                       0.0000000000E+00  0.0000000000E+00  4.7127884534E+01
          spgroup         164
           symrel      1  0  0   0  1  0   0  0  1      -1  0  0   0 -1  0   0  0 -1
                      -1  0  0   1  1  0   0  0  1       1  0  0  -1 -1  0   0  0 -1
                       0  1  0  -1 -1  0   0  0  1       0 -1  0   1  1  0   0  0 -1
                       0 -1  0  -1  0  0   0  0  1       0  1  0   1  0  0   0  0 -1
                      -1 -1  0   1  0  0   0  0  1       1  1  0  -1  0  0   0  0 -1
                       1  1  0   0 -1  0   0  0  1      -1 -1  0   0  1  0   0  0 -1
            tnons      0.0000000  0.0000000  0.0000000    -0.3333333  0.3333333 -0.2231304
                      -0.0000000  0.0000000  0.0000000    -0.3333333  0.3333333 -0.2231304
                      -0.0000000 -0.0000000  0.0000000    -0.3333333  0.3333333 -0.2231304
                      -0.0000000 -0.0000000  0.0000000    -0.3333333  0.3333333 -0.2231304
                      -0.0000000 -0.0000000  0.0000000    -0.3333333  0.3333333 -0.2231304
                       0.0000000 -0.0000000  0.0000000    -0.3333333  0.3333333 -0.2231304
           toldfe      3.67493254E-08 Hartree
            typat      1  1  1  1  1  1  1  1  1  1  1  1  1  1  1  1  1  1  1  1
                       1  1  1  1  1  1  1  1  1  1  1  1  1  1  1  1
           useylm           1
              wtk        0.00694    0.04167    0.04167    0.04167    0.04167    0.04167
                         0.02083    0.04167    0.08333    0.08333    0.08333    0.08333
                         0.04167    0.08333    0.08333    0.04167    0.04167    0.08333
                         0.01389
           xangst     -3.9304153137E-09 -4.0802268493E-09 -2.0426277705E-07
                      -3.9304153137E-09 -4.0802268493E-09  1.5469953662E+00
                      -3.9304119891E-09  1.4585210473E+00  2.0626600399E+00
                      -3.9304119891E-09  1.4585210473E+00  3.6096556104E+00
                       1.2631162785E+00  7.2926052161E-01  4.1253202841E+00
                       1.2631162785E+00  7.2926052161E-01  5.6723158546E+00
                      -3.9304153137E-09 -4.0802268493E-09  6.1879805283E+00
                      -3.9304153137E-09 -4.0802268493E-09  7.7349760988E+00
                      -3.9304119891E-09  1.4585210473E+00  8.2506407725E+00
                      -3.9304119891E-09  1.4585210473E+00  9.7976363430E+00
                       1.2631162785E+00  7.2926052161E-01  1.0313301017E+01
                       1.2631162785E+00  7.2926052161E-01  1.1860296587E+01
                      -3.9304153137E-09 -4.0802268493E-09  1.2375961261E+01
                      -3.9304153137E-09 -4.0802268493E-09  1.3922956831E+01
                      -3.9304119891E-09  1.4585210473E+00  1.4438621505E+01
                      -3.9304119891E-09  1.4585210473E+00  1.5985617076E+01
                       1.2631162785E+00  7.2926052161E-01  1.6501281749E+01
                       1.2631162785E+00  7.2926052161E-01  1.8048277320E+01
                      -3.9304153137E-09 -4.0802268493E-09  1.8563941993E+01
                      -3.9304153137E-09 -4.0802268493E-09  2.0110937564E+01
                      -3.9304119891E-09  1.4585210473E+00  2.0626602238E+01
                      -3.9304119891E-09  1.4585210473E+00  2.2173597808E+01
                       1.2631162785E+00  7.2926052161E-01  2.2689262482E+01
                       1.2631162785E+00  7.2926052161E-01  2.4236258052E+01
                      -3.9304153137E-09 -4.0802268493E-09  2.4751922726E+01
                      -3.9304153137E-09 -4.0802268493E-09  2.6298918296E+01
                      -3.9304119891E-09  1.4585210473E+00  2.6814582970E+01
                      -3.9304119891E-09  1.4585210473E+00  2.8361578541E+01
                       1.2631162785E+00  7.2926052161E-01  2.8877243214E+01
                       1.2631162785E+00  7.2926052161E-01  3.0424238785E+01
                      -3.9304153137E-09 -4.0802268493E-09  3.0939903458E+01
                      -3.9304153137E-09 -4.0802268493E-09  3.2486899029E+01
                      -3.9304119891E-09  1.4585210473E+00  3.3002563703E+01
                      -3.9304119891E-09  1.4585210473E+00  3.4549559273E+01
                       1.2631162785E+00  7.2926052161E-01  3.5065223947E+01
                       1.2631162785E+00  7.2926052161E-01  3.6612219517E+01
            xcart     -7.4274085314E-09 -7.7105113053E-09 -3.8600070776E-07
                      -7.4274085314E-09 -7.7105113053E-09  2.9233975710E+00
                      -7.4274022488E-09  2.7562053385E+00  3.8978625807E+00
                      -7.4274022488E-09  2.7562053385E+00  6.8212605377E+00
                       2.3869438404E+00  1.3781026654E+00  7.7957255474E+00
                       2.3869438404E+00  1.3781026654E+00  1.0719123504E+01
                      -7.4274085314E-09 -7.7105113053E-09  1.1693588514E+01
                      -7.4274085314E-09 -7.7105113053E-09  1.4616986471E+01
                      -7.4274022488E-09  2.7562053385E+00  1.5591451481E+01
                      -7.4274022488E-09  2.7562053385E+00  1.8514849438E+01
                       2.3869438404E+00  1.3781026654E+00  1.9489314448E+01
                       2.3869438404E+00  1.3781026654E+00  2.2412712405E+01
                      -7.4274085314E-09 -7.7105113053E-09  2.3387177414E+01
                      -7.4274085314E-09 -7.7105113053E-09  2.6310575371E+01
                      -7.4274022488E-09  2.7562053385E+00  2.7285040381E+01
                      -7.4274022488E-09  2.7562053385E+00  3.0208438338E+01
                       2.3869438404E+00  1.3781026654E+00  3.1182903348E+01
                       2.3869438404E+00  1.3781026654E+00  3.4106301305E+01
                      -7.4274085314E-09 -7.7105113053E-09  3.5080766314E+01
[...]

== END DATASET(S) ==============================================================

 -outvars: echo values of variables after computation  --------
            acell      1.8897261329E+00  1.8897261329E+00  1.8897261329E+00 Bohr
              amu      1.20110000E+01
          chkexit           1
          chkprim           0
      chksymtnons           0
           diemac      3.00000000E+00
           diemix      1.00000000E+00
             ecut      2.93994603E+01 Hartree
           etotal     -5.2539579003E+11
            fcart      1.5401320353E-26  3.8950930297E-27 -7.3266703113E+04
                       1.6303778189E-26  4.9371615783E-27 -1.7293601179E+02
                       1.6303778189E-26  5.7187129898E-27 -1.8343765612E+02
                       1.9913609531E-26  2.4785310965E-28 -1.4847380457E+02
                       1.8108693860E-26  5.9792301269E-27 -1.3722325538E+02
                       1.2693946847E-26  3.3740587554E-27 -1.2159639275E+02
                       1.6303778189E-26  5.7187129898E-27 -1.0525193212E+02
                       1.6303778189E-26  5.5884544212E-27 -1.0344166329E+02
                       2.5328356545E-26  1.2231641418E-26 -9.9129266258E+01
                       1.7319043254E-26  1.2166512134E-26 -8.1649934200E+01
                       1.8108693860E-26  1.5878881339E-26 -7.9748527225E+01
                       1.2693946847E-26 -7.9421543894E-28 -6.1630117662E+01
                       1.6303778189E-26  5.9792301269E-27 -5.8433818059E+01
                       1.6303778189E-26  5.1976787155E-27 -4.4555833075E+01
                       1.6303778189E-26  1.0549677652E-25 -3.7126772446E+01
                      -1.3530913819E-25  1.0132850232E-25 -2.9072421566E+01
                       1.4498862518E-26  1.8109559325E-27 -1.6028810115E+01
                       1.7206236025E-26  1.0147504321E-26  1.0499846335E+00
                       1.6303778189E-26  5.4581958526E-27 -1.0499846335E+00
                       1.2693946847E-26  3.3740587554E-27  1.6028810115E+01
                      -4.4575463362E-25 -5.2808090103E-25  2.9072421566E+01
                       4.5182428927E-26  1.4717951846E-25  3.7126772446E+01
                       1.6303778189E-26  5.7187129898E-27  4.4555833075E+01
                       1.6303778189E-26  5.4581958526E-27  5.8433818059E+01
                       1.9913609531E-26  7.5423329498E-27  6.1630117662E+01
                       1.2693946847E-26  2.4785310965E-28  7.9748527225E+01
                       1.6303778189E-26  9.6264700470E-27  8.1649934200E+01
                       1.9913609531E-26  7.5423329498E-27  9.9129266258E+01
                       1.6303778189E-26  6.5002644012E-27  1.0344166329E+02
                       1.6303778189E-26  5.7187129898E-27  1.0525193212E+02
                       7.7304287512E-27 -1.4455082818E-27  1.2159639275E+02
                       1.3596404682E-26  3.6345758926E-27  1.3722325538E+02
                       1.6303778189E-26 -7.9421543894E-28  1.4847380457E+02
                       1.6303778189E-26  5.4581958526E-27  1.8343765612E+02
                       1.6303778189E-26  5.9792301269E-27  1.7293601179E+02
                       1.7206236025E-26  5.9792301269E-27  7.3266703113E+04
-          fftalg         512
           iprcel          45
           istwfk        2    0    0    0    0    0    3    0    0    0
                         0    0    0    0    0    0    0    0    0
              ixc          11
              kpt      0.00000000E+00  0.00000000E+00  0.00000000E+00
                       8.33333333E-02  0.00000000E+00  0.00000000E+00
                       1.66666667E-01  0.00000000E+00  0.00000000E+00
                       2.50000000E-01  0.00000000E+00  0.00000000E+00
                       3.33333333E-01  0.00000000E+00  0.00000000E+00
                       4.16666667E-01  0.00000000E+00  0.00000000E+00
                       5.00000000E-01  0.00000000E+00  0.00000000E+00
                       8.33333333E-02  8.33333333E-02  0.00000000E+00
                       1.66666667E-01  8.33333333E-02  0.00000000E+00
                       2.50000000E-01  8.33333333E-02  0.00000000E+00
                       3.33333333E-01  8.33333333E-02  0.00000000E+00
                       4.16666667E-01  8.33333333E-02  0.00000000E+00
                       1.66666667E-01  1.66666667E-01  0.00000000E+00
                       2.50000000E-01  1.66666667E-01  0.00000000E+00
                       3.33333333E-01  1.66666667E-01  0.00000000E+00
                       4.16666667E-01  1.66666667E-01  0.00000000E+00
                       2.50000000E-01  2.50000000E-01  0.00000000E+00
                       3.33333333E-01  2.50000000E-01  0.00000000E+00
                       3.33333333E-01  3.33333333E-01  0.00000000E+00
         kptrlatt       12    0    0      0   12    0      0    0    1
          kptrlen      5.72866523E+01
P           mkmem           4
            natom          36
            nband          77
            ngfft          24      24     450
          ngfftdg          27      27     450
             nkpt          19
            nstep         300
             nsym          12
           ntypat           1
              occ      2.000000  2.000000  2.000000  2.000000  2.000000  2.000000
                       2.000000  2.000000  2.000000  2.000000  2.000000  2.000000
                       2.000000  2.000000  2.000000  2.000000  2.000000  2.000000
                       2.000000  2.000000  2.000000  2.000000  2.000000  2.000000
                       2.000000  2.000000  2.000000  2.000000  2.000000  2.000000
                       2.000000  2.000000  2.000000  2.000000  2.000000  2.000000
                       2.000000  2.000000  2.000000  2.000000  2.000000  2.000000
                       2.000000  2.000000  2.000000  2.000000  2.000000  2.000000
                       2.000000  2.000000  2.000000  2.000000  2.000000  2.000000
                       2.000000  2.000000  2.000000  2.000000  2.000000  2.000000
                       2.000000  2.000000  2.000000  2.000000  2.000000  2.000000
                       2.000000  2.000000  2.000000  2.000000  2.000000  2.000000
                       0.000000  0.000000  0.000000  0.000000  0.000000
        pawecutdg      3.12369266E+01 Hartree
            rprim      2.5262325649E+00  0.0000000000E+00  0.0000000000E+00
                      -1.2631162825E+00  2.1877815771E+00  0.0000000000E+00
                       0.0000000000E+00  0.0000000000E+00  4.7127884534E+01
          spgroup         164
           strten     -2.9887689633E+08 -2.9887689633E+08 -2.9887691634E+08
                       0.0000000000E+00  0.0000000000E+00  6.7422005356E-07
           symrel      1  0  0   0  1  0   0  0  1      -1  0  0   0 -1  0   0  0 -1
                      -1  0  0   1  1  0   0  0  1       1  0  0  -1 -1  0   0  0 -1
                       0  1  0  -1 -1  0   0  0  1       0 -1  0   1  1  0   0  0 -1
                       0 -1  0  -1  0  0   0  0  1       0  1  0   1  0  0   0  0 -1
                      -1 -1  0   1  0  0   0  0  1       1  1  0  -1  0  0   0  0 -1
                       1  1  0   0 -1  0   0  0  1      -1 -1  0   0  1  0   0  0 -1
            tnons      0.0000000  0.0000000  0.0000000    -0.3333333  0.3333333 -0.2231304
                      -0.0000000  0.0000000  0.0000000    -0.3333333  0.3333333 -0.2231304
                      -0.0000000 -0.0000000  0.0000000    -0.3333333  0.3333333 -0.2231304
                      -0.0000000 -0.0000000  0.0000000    -0.3333333  0.3333333 -0.2231304
                      -0.0000000 -0.0000000  0.0000000    -0.3333333  0.3333333 -0.2231304
                       0.0000000 -0.0000000  0.0000000    -0.3333333  0.3333333 -0.2231304
           toldfe      3.67493254E-08 Hartree
            typat      1  1  1  1  1  1  1  1  1  1  1  1  1  1  1  1  1  1  1  1
                       1  1  1  1  1  1  1  1  1  1  1  1  1  1  1  1
           useylm           1
              wtk        0.00694    0.04167    0.04167    0.04167    0.04167    0.04167
                         0.02083    0.04167    0.08333    0.08333    0.08333    0.08333
                         0.04167    0.08333    0.08333    0.04167    0.04167    0.08333
                         0.01389
           xangst     -3.9304153137E-09 -4.0802268493E-09 -2.0426277705E-07
                      -3.9304153137E-09 -4.0802268493E-09  1.5469953662E+00
                      -3.9304119891E-09  1.4585210473E+00  2.0626600399E+00
                      -3.9304119891E-09  1.4585210473E+00  3.6096556104E+00
                       1.2631162785E+00  7.2926052161E-01  4.1253202841E+00
                       1.2631162785E+00  7.2926052161E-01  5.6723158546E+00
                      -3.9304153137E-09 -4.0802268493E-09  6.1879805283E+00
                      -3.9304153137E-09 -4.0802268493E-09  7.7349760988E+00
                      -3.9304119891E-09  1.4585210473E+00  8.2506407725E+00
                      -3.9304119891E-09  1.4585210473E+00  9.7976363430E+00
                       1.2631162785E+00  7.2926052161E-01  1.0313301017E+01
                       1.2631162785E+00  7.2926052161E-01  1.1860296587E+01
                      -3.9304153137E-09 -4.0802268493E-09  1.2375961261E+01
                      -3.9304153137E-09 -4.0802268493E-09  1.3922956831E+01
                      -3.9304119891E-09  1.4585210473E+00  1.4438621505E+01
                      -3.9304119891E-09  1.4585210473E+00  1.5985617076E+01
                       1.2631162785E+00  7.2926052161E-01  1.6501281749E+01
                       1.2631162785E+00  7.2926052161E-01  1.8048277320E+01
                      -3.9304153137E-09 -4.0802268493E-09  1.8563941993E+01
                      -3.9304153137E-09 -4.0802268493E-09  2.0110937564E+01
                      -3.9304119891E-09  1.4585210473E+00  2.0626602238E+01
                      -3.9304119891E-09  1.4585210473E+00  2.2173597808E+01
                       1.2631162785E+00  7.2926052161E-01  2.2689262482E+01
                       1.2631162785E+00  7.2926052161E-01  2.4236258052E+01
                      -3.9304153137E-09 -4.0802268493E-09  2.4751922726E+01
                      -3.9304153137E-09 -4.0802268493E-09  2.6298918296E+01
                      -3.9304119891E-09  1.4585210473E+00  2.6814582970E+01
                      -3.9304119891E-09  1.4585210473E+00  2.8361578541E+01
                       1.2631162785E+00  7.2926052161E-01  2.8877243214E+01
                       1.2631162785E+00  7.2926052161E-01  3.0424238785E+01
                      -3.9304153137E-09 -4.0802268493E-09  3.0939903458E+01
                      -3.9304153137E-09 -4.0802268493E-09  3.2486899029E+01
                      -3.9304119891E-09  1.4585210473E+00  3.3002563703E+01
                      -3.9304119891E-09  1.4585210473E+00  3.4549559273E+01
                       1.2631162785E+00  7.2926052161E-01  3.5065223947E+01
                       1.2631162785E+00  7.2926052161E-01  3.6612219517E+01
            xcart     -7.4274085314E-09 -7.7105113053E-09 -3.8600070776E-07
                      -7.4274085314E-09 -7.7105113053E-09  2.9233975710E+00
                      -7.4274022488E-09  2.7562053385E+00  3.8978625807E+00
                      -7.4274022488E-09  2.7562053385E+00  6.8212605377E+00
                       2.3869438404E+00  1.3781026654E+00  7.7957255474E+00
                       2.3869438404E+00  1.3781026654E+00  1.0719123504E+01
                      -7.4274085314E-09 -7.7105113053E-09  1.1693588514E+01
                      -7.4274085314E-09 -7.7105113053E-09  1.4616986471E+01
                      -7.4274022488E-09  2.7562053385E+00  1.5591451481E+01
                      -7.4274022488E-09  2.7562053385E+00  1.8514849438E+01
                       2.3869438404E+00  1.3781026654E+00  1.9489314448E+01
                       2.3869438404E+00  1.3781026654E+00  2.2412712405E+01
                      -7.4274085314E-09 -7.7105113053E-09  2.3387177414E+01
                      -7.4274085314E-09 -7.7105113053E-09  2.6310575371E+01
                      -7.4274022488E-09  2.7562053385E+00  2.7285040381E+01
                      -7.4274022488E-09  2.7562053385E+00  3.0208438338E+01
                       2.3869438404E+00  1.3781026654E+00  3.1182903348E+01
                       2.3869438404E+00  1.3781026654E+00  3.4106301305E+01
                      -7.4274085314E-09 -7.7105113053E-09  3.5080766314E+01
                      -7.4274085314E-09 -7.7105113053E-09  3.8004164271E+01
                      -7.4274022488E-09  2.7562053385E+00  3.8978629281E+01
                      -7.4274022488E-09  2.7562053385E+00  4.1902027238E+01
                       2.3869438404E+00  1.3781026654E+00  4.2876492248E+01
                       2.3869438404E+00  1.3781026654E+00  4.5799890205E+01
                      -7.4274085314E-09 -7.7105113053E-09  4.6774355214E+01
                      -7.4274085314E-09 -7.7105113053E-09  4.9697753171E+01
                      -7.4274022488E-09  2.7562053385E+00  5.0672218181E+01
                      -7.4274022488E-09  2.7562053385E+00  5.3595616138E+01
                       2.3869438404E+00  1.3781026654E+00  5.4570081148E+01
                       2.3869438404E+00  1.3781026654E+00  5.7493479105E+01
                      -7.4274085314E-09 -7.7105113053E-09  5.8467944114E+01
                      -7.4274085314E-09 -7.7105113053E-09  6.1391342071E+01
                      -7.4274022488E-09  2.7562053385E+00  6.2365807081E+01
                      -7.4274022488E-09  2.7562053385E+00  6.5289205038E+01
                       2.3869438404E+00  1.3781026654E+00  6.6263670048E+01
                       2.3869438404E+00  1.3781026654E+00  6.9187068005E+01
             xred     -2.4883438963E-09 -1.8650064943E-09 -4.3342233387E-09
                      -2.4883438963E-09 -1.8650064943E-09  3.2825478622E-02
                       3.3333333084E-01  6.6666666480E-01  4.3767295314E-02
                       3.3333333084E-01  6.6666666480E-01  7.6592778270E-02
                       6.6666666418E-01  3.3333333147E-01  8.7534594963E-02
                       6.6666666418E-01  3.3333333147E-01  1.2036007792E-01
                      -2.4883438963E-09 -1.8650064943E-09  1.3130189461E-01
                      -2.4883438963E-09 -1.8650064943E-09  1.6412737757E-01
                       3.3333333084E-01  6.6666666480E-01  1.7506919426E-01
                       3.3333333084E-01  6.6666666480E-01  2.0789467722E-01
                       6.6666666418E-01  3.3333333147E-01  2.1883649391E-01
                       6.6666666418E-01  3.3333333147E-01  2.5166197686E-01
                      -2.4883438963E-09 -1.8650064943E-09  2.6260379356E-01
                      -2.4883438963E-09 -1.8650064943E-09  2.9542927651E-01
                       3.3333333084E-01  6.6666666480E-01  3.0637109320E-01
                       3.3333333084E-01  6.6666666480E-01  3.3919657616E-01
                       6.6666666418E-01  3.3333333147E-01  3.5013839285E-01
                       6.6666666418E-01  3.3333333147E-01  3.8296387581E-01
                      -2.4883438963E-09 -1.8650064943E-09  3.9390569250E-01
                      -2.4883438963E-09 -1.8650064943E-09  4.2673117546E-01
                       3.3333333084E-01  6.6666666480E-01  4.3767299215E-01
                       3.3333333084E-01  6.6666666480E-01  4.7049847511E-01
                       6.6666666418E-01  3.3333333147E-01  4.8144029180E-01
                       6.6666666418E-01  3.3333333147E-01  5.1426577475E-01
                      -2.4883438963E-09 -1.8650064943E-09  5.2520759145E-01
                      -2.4883438963E-09 -1.8650064943E-09  5.5803307440E-01
                       3.3333333084E-01  6.6666666480E-01  5.6897489109E-01
                       3.3333333084E-01  6.6666666480E-01  6.0180037405E-01
                       6.6666666418E-01  3.3333333147E-01  6.1274219074E-01
                       6.6666666418E-01  3.3333333147E-01  6.4556767370E-01
                      -2.4883438963E-09 -1.8650064943E-09  6.5650949039E-01
                      -2.4883438963E-09 -1.8650064943E-09  6.8933497335E-01
                       3.3333333084E-01  6.6666666480E-01  7.0027679004E-01
                       3.3333333084E-01  6.6666666480E-01  7.3310227300E-01
                       6.6666666418E-01  3.3333333147E-01  7.4404408969E-01
                       6.6666666418E-01  3.3333333147E-01  7.7686957264E-01
            znucl        6.00000

- Timing analysis has been suppressed with timopt=0

 Suggested references for the acknowledgment of ABINIT usage.

 Calculation completed.
.Delivered   5 WARNINGs and   0 COMMENTs to log file.