.Version 6.9.0  of ABINIT

 ABINIT is a project of the Universite Catholique de Louvain,
 Corning Inc. and other collaborators, see ~abinit/doc/developers/contributors.txt .
 Please read ~abinit/doc/users/acknowledgments.html for suggested
 acknowledgments of the ABINIT effort.

.Starting date : Tue  7 Jun 2011.
- ( at 21h54 )

 === Build Information ===
  Version       : 6.9.0
  Build target  : x86_64_linux_gnu4.4
  Build date    : 20110607

 === Optimizations ===
  Debug level        : no
  Optimization level : standard
  Architecture       : intel_xeon

  Parallel build : yes
  Parallel I/O   : yes
  Time tracing   : no
  GPU support    : no

 === Connectors / Fallbacks ===
  Connectors on : yes
  Fallbacks on  : yes
  DFT flavor    :
  FFT flavor    : none
  LINALG flavor : netlib-fallback
  MATH flavor   : none
  TIMER flavor  : abinit
  TRIO flavor   : netcdf-fallback+etsf_io-fallback

 === Experimental features ===
  Bindings            : no
  Exports             : no
  GW double-precision : no

 === Bazaar branch information ===
  Branch ID : gonze@testf.pcpm.ucl.ac.be-20110605051129-gm5q79nv7cnp8ctl
  Revision  : 679
  Committed : 0

 Default optimizations:
   -O2 -mtune=native -march=native -mfpmath=sse

 CPP options activated during the build:

                    CC_GNU                   CXX_GNU                    FC_GNU

           HAVE_BZR_BRANCH HAVE_FC_ALLOCATABLE_DT...              HAVE_FC_EXIT

             HAVE_FC_FLUSH             HAVE_FC_GAMMA            HAVE_FC_GETENV

          HAVE_FC_INT_QUAD     HAVE_FC_ISO_C_BINDING        HAVE_FC_LONG_LINES

              HAVE_FC_NULL         HAVE_FC_STREAM_IO          HAVE_FORTRAN2003

                  HAVE_MPI                 HAVE_MPI2               HAVE_MPI_IO

 HAVE_MPI_TYPE_CREATE_S...             HAVE_OS_LINUX              HAVE_STDIO_H

                HAVE_TIMER         HAVE_TIMER_ABINIT            HAVE_TIMER_MPI

         HAVE_TIMER_SERIAL         HAVE_TRIO_ETSF_IO          HAVE_TRIO_NETCDF

              USE_MACROAVE

- input  file    -> t75.in
- output file    -> t75.outF
- root for input  files -> t75i
- root for output files -> t75o

 instrng :    82 lines of input have been read

 iofn2 : Please give name of formatted atomic psp file
 iofn2 : for atom type   1 , psp file is /home/mancini/6.9.0-public/tests/Psps_for_tests/2he.psphgh
-P-0000   read the values zionpsp=  2.0 , pspcod=   3 , lmax=   0
-P-0000
-P-0000  inpspheads : deduce mpsang  =   1, n1xccc  =   0.
-P-0000  leave_test : synchronization done...

 invars1m : enter jdtset=     0
 invars1 : treat image number     1

 symlatt : the Bravais lattice is cP (primitive cubic)
  randomcellpos : enter
  rprimd=   7.1287592924101828        0.0000000000000000        0.0000000000000000        0.0000000000000000        7.1287592924101828        0.0000000000000000        0.0000000000000000        0.0000000000000000        7.1287592924101828
  znucl=   2.0000000000000000
  typat=           1           1           1           1
  xred   is defined in input file
 ingeo : takes atomic coordinates from input array xred

 symlatt : the Bravais lattice is cP (primitive cubic)

 symlatt : the Bravais lattice is cP (primitive cubic)

 symbrav : COMMENT -
  The Bravais lattice determined only from the primitive
  vectors, bravais(1)=  7, is more symmetric
  than the real one, iholohedry=  1, obtained by taking into
  account the atomic positions. Start deforming the primitive vector set.

 symlatt : the Bravais lattice is hR (rhombohedral)

 symbrav : COMMENT -
  The Bravais lattice determined from modified primitive
  vectors, bravais(1)=  5, has a lower symmetry than before,
  but is still more symmetric than the real one, iholohedry=  1
  obtained by taking into account the atomic positions.

 symlatt : the Bravais lattice is mC (one-face-centered monoclinic)

 symbrav : COMMENT -
  The Bravais lattice determined from modified primitive
  vectors, bravais(1)=  2, has a lower symmetry than before,
  but is still more symmetric than the real one, iholohedry=  1
  obtained by taking into account the atomic positions.

 symlatt : the Bravais lattice is aP (primitive triclinic)
 symspgr : the symmetry operation no.   1 is the identity
 symspgr : spgroup=   1  P1   (=C1^1)
  inkpts : enter
 inkpts: Sum of    1 k point weights is    1.000000
  inkpts : exit

 invars1: WARNING -
  If HAVE_GPU_CUDA and recursion are used
  only the band parallelisation is active, we set:
  npfft= 1, npkpt= 1, npband=     4 .
 mpi_enreg%sizecart(1),np_fft           1           1
 mpi_enreg%sizecart(2),np_band           4           4
 mpi_enreg%sizecart(3),np_kpt           1           1
 in initmpi_grid : me_fft, me_band, me_kpt are           0           0           0
 invars1: mkmem  undefined in the input file. Use default mkmem  = nkpt
 invars1: With nkpt_me=    1 and mkmem  =     1, ground state wf handled in core.
 invars1: mkqmem undefined in the input file. Use default mkqmem = nkpt
 invars1: With nkpt_me=    1 and mkqmem =     1, ground state wf handled in core.
 invars1: mk1mem undefined in the input file. Use default mk1mem = nkpt
 invars1: With nkpt_me=    1 and mk1mem =     1, ground state wf handled in core.

 Symmetries : space group P1 (#  1); Bravais aP (primitive triclinic)
  inkpts : enter
 inkpts: Sum of    1 k point weights is    1.000000
  inkpts : exit
 chkneu : initialized the occupation numbers for occopt=    3
    spin-unpolarized case :
  2.00  2.00  2.00  2.00  0.00  0.00  0.00  0.00  0.00  0.00  0.00  0.00
  0.00  0.00  0.00  0.00  0.00  0.00  0.00  0.00
 mpi_enreg%sizecart(1),np_fft           1           1
 mpi_enreg%sizecart(2),np_band           4           4
 mpi_enreg%sizecart(3),np_kpt           1           1
 in initmpi_grid : me_fft, me_band, me_kpt are           0           0           0

 getng.F90:208:WARNING
 For input ecut=  5.000000E+00 best grid ngfft=       8       8       8
       max ecut=  1.553681E+00
 input values of ngfft(1) = 24 ngfft(2) = 24 ngfft(3) = 24 are alright and will be used

 ==== FFT mesh ====
  FFT mesh divisions ........................    24   24   24
  Augmented FFT divisions ...................    25   25   24
  FFT algorithm .............................   401
  FFT cache size ............................    16
 getmpw: optimal value of mpw=      44

 getdim_nloc : COMMENT -
  Despite there is only a local part to pseudopotential(s),
  lmnmax and lnmax are set to 1.

 getdim_nloc : deduce lmnmax  =   1, lnmax  =   1,
                      lmnmaxso=   1, lnmaxso=   1.
 setmqgrid : COMMENT -
  The number of points "mqgrid" in reciprocal space used for the
  description of the pseudopotentials has been set automatically
  by abinit to :     3001.
   intxc =         0  ionmov =        12    iscf =         7 xclevel =         1
  lmnmax =         1   lnmax =         1   mband =        20  mffmem =         1
P  mgfft =        24   mkmem =         1 mpssoang=         1     mpw =        44
  mqgrid =      3001   natom =         4    nfft =     13824    nkpt =         1
  nloalg =         4  nspden =         1 nspinor =         1  nsppol =         1
    nsym =         1  n1xccc =         0  ntypat =         1  occopt =         3
  Rough estimation (10% accuracy) of disk space for files :

-P-0000  leave_test : synchronization done...
 The job will continue.
------------- Echo of variables that govern the present computation ------------
-
- outvars: echo of selected default values
-   accesswff0 =  0 , fftalg0 =401 , wfoptalg0 =  0
-
- outvars: echo of global parameters not present in the input file
-   nproc =    4
-
 -outvars: echo values of preprocessed input variables --------

 These variables are accessible in NetCDF format (t75o_OUT.nc)

        accesswff           1
            acell      7.1287592924E+00  7.1287592924E+00  7.1287592924E+00 Bohr
              amu      4.00260200E+00
        boxcutmin      1.00000000E+00
            dtion      5.00000000E+01
             ecut      5.00000000E+00 Hartree
           enunit           2
      fft_opt_lob           2
           ionmov          12
           iprcch           0
           istwfk        1
           kptopt           0
          mdftemp      1.00000000E+06
          mditemp      1.00000000E+06
P           mkmem           1
            natom           4
            nband          20
            ngfft          24      24      24
             nkpt           1
            nline           5
           npband           4
            nstep          20
             nsym           1
            ntime           2
           ntypat           1
              occ      2.000000  2.000000  2.000000  2.000000  0.000000  0.000000
                       0.000000  0.000000  0.000000  0.000000  0.000000  0.000000
                       0.000000  0.000000  0.000000  0.000000  0.000000  0.000000
                       0.000000  0.000000
           occopt           3
        paral_kgb           1
           prtvol           3
            prtwf           0
         recnpath        1000
          recnrec          50
        recptrott          15
        rectolden      1.00000000E-02
          spgroup           1
        tfkinfunc           2
           timopt          -1
           toldfe      1.00000000E-20 Hartree
           tsmear      3.16682970E+00 Hartree
            typat      1  1  1  1
           useylm           1
         wfoptalg           4
           xangst      0.0000000000E+00  0.0000000000E+00  0.0000000000E+00
                       1.8861884715E+00  1.8861884715E+00  0.0000000000E+00
                       1.8861884715E+00  0.0000000000E+00  1.8861884715E+00
                       0.0000000000E+00  1.8861884715E+00  1.8861884715E+00
            xcart      0.0000000000E+00  0.0000000000E+00  0.0000000000E+00
                       3.5643796462E+00  3.5643796462E+00  0.0000000000E+00
                       3.5643796462E+00  0.0000000000E+00  3.5643796462E+00
                       0.0000000000E+00  3.5643796462E+00  3.5643796462E+00
             xred      0.0000000000E+00  0.0000000000E+00  0.0000000000E+00
                       5.0000000000E-01  5.0000000000E-01  0.0000000000E+00
                       5.0000000000E-01  0.0000000000E+00  5.0000000000E-01
                       0.0000000000E+00  5.0000000000E-01  5.0000000000E-01
            znucl        2.00000

-P-0000  leave_test : synchronization done...

 chkinp: machine precision is   2.2204460492503131E-16

 chkinp: Checking input parameters for consistency.
dtsetcopy : copying area  algalch    the actual size (     1) of the index (     1)  differs from its standard size (     0)
dtsetcopy : copying area  atvshift   the actual size (     0) of the index (     3)  differs from its standard size (     4)
dtsetcopy : copying area  kberry     the actual size (    20) of the index (     2)  differs from its standard size (     1)
dtsetcopy : copying area  mixalch    the actual size (     1) of the index (     1)  differs from its standard size (     0)
dtsetcopy : copying area  mixalch    the actual size (     1) of the index (     2)  differs from its standard size (     0)
[...]
  sigma(2 2)= -6.63911507E-02  sigma(3 1)=  0.00000000E+00
  sigma(3 3)= -6.63911507E-02  sigma(2 1)=  0.00000000E+00

 scprqt:  WARNING -
  nstep=   20 was not enough SCF cycles to converge;
  maximum energy difference=  1.774E+02 exceeds toldfe=  1.000E-20

 ioarr: writing density data
 ioarr: file name is t75o_TIM1_DEN

 m_wffile.F90:271:COMMENT
 ioarr: data written to disk file t75o_TIM1_DEN
-P-0000  leave_test : synchronization done...
 ihist @ mover           1
 mxhist @ mover           2
 ihist @ write_md_hist           1
 mxhist @ write_md_hist           2

---OUTPUT-----------------------------------------------------------------------

 Cartesian coordinates (xcart) [bohr]
   0.00000000000000E+00  0.00000000000000E+00  0.00000000000000E+00
   3.56437964620509E+00  3.56437964620509E+00  0.00000000000000E+00
   3.56437964620509E+00  0.00000000000000E+00  3.56437964620509E+00
   0.00000000000000E+00  3.56437964620509E+00  3.56437964620509E+00
 Reduced coordinates (xred)
   0.00000000000000E+00  0.00000000000000E+00  0.00000000000000E+00
   5.00000000000000E-01  5.00000000000000E-01  0.00000000000000E+00
   5.00000000000000E-01  0.00000000000000E+00  5.00000000000000E-01
   0.00000000000000E+00  5.00000000000000E-01  5.00000000000000E-01
 Cartesian forces (fcart) [Ha/bohr]; max,rms=   +Infinity   +Infinity (free atoms)
  -3.25474892415309E-15  4.65900991222301+177  2.90363561450481E-14
   6.17691470125800E-15  4.65900991222301+177 -2.39511768028476E-14
   4.35030739012121E-16  4.65900991222301+177 -9.65512316154327E-15
  -3.35719651611703E-15 -1.39770297366690+178  4.56994381934278E-15
 Reduced forces (fred)
  -9.14108996861497E-16 -8.73365911860742E-15 -1.79723397356211E-13
  -6.81501687093979E-14 -7.67603645136199E-14  1.98011970527992E-13
  -2.72176600575966E-14  8.11992729102324E-14  9.60988452877490E-14
  -1.83784773663571E-16  1.32851840820764+179 -5.30823313739970E-15
 Cartesian velocities (vel) [bohr*Ha/hbar]; max,rms= 0.00000E+00 0.00000E+00 (free atoms)
   0.00000000000000E+00  0.00000000000000E+00  0.00000000000000E+00
   0.00000000000000E+00  0.00000000000000E+00  0.00000000000000E+00
   0.00000000000000E+00  0.00000000000000E+00  0.00000000000000E+00
   0.00000000000000E+00  0.00000000000000E+00  0.00000000000000E+00
 Kinetic energy of ions (ekin) [Ha]=  0.00000000000000E+00
 Total energy (etotal) [Ha]= -1.85754043700621E+02
 Geometry Optimization Precondition:           0
 if itime==1
 exit ICYCLE           1
 exit NCYCLE           1

--- Iteration: (2/2) Internal Cycle: (1/1)

 Cartesian coordinates (xcart) [bohr]
                    NaN                   NaN                   NaN
                    NaN                   NaN                   NaN
                    NaN                   NaN                   NaN
                    NaN                   NaN                   NaN
 Reduced coordinates (xred)
                    NaN                   NaN                   NaN
                    NaN                   NaN                   NaN
                    NaN                   NaN                   NaN
                    NaN                   NaN                   NaN
 Cartesian velocities (vel) [bohr*Ha/hbar]; max,rms= 3.69185E-02 2.08334E-02 (free atoms)
  -1.75051134717685E-02 -2.70512543399619E-02 -3.59948251631659E-03
   8.38146360852743E-03 -9.61972344460439E-03  2.26659088291983E-02
   3.69185151994053E-02  2.86787653220175E-03 -7.03232723315978E-03
  -2.77948653361642E-02  3.38031012523645E-02 -1.20340990797219E-02
 Kinetic energy of ions (ekin) [Ha]=  1.90008925183712E+01
 WARNING: ATOMIC COORDINATES WERE SYMMETRIZED
 DIFFERENCES:
                       NaN                       NaN                       NaN
                       NaN                       NaN                       NaN
                       NaN                       NaN                       NaN
                       NaN                       NaN                       NaN

---SELF-CONSISTENT-FIELD CONVERGENCE--------------------------------------------

 getcut: wavevector=  0.0000  0.0000  0.0000  ngfft=  24  24  24
         ecut(hartree)=      5.000   => boxcut(ratio)=   3.34462

 getcut : COMMENT -
  Note that boxcut > 2.2 ; recall that boxcut=Gcut(box)/Gcut(sphere) = 2
  is sufficient for exact treatment of convolution.
  Such a large boxcut is a waste : you could raise ecut
  e.g. ecut=   13.983128 Hartrees makes boxcut=2

  scfcv : before setvtr, energies%e_hartree=   0.0000000000000000

 ewald : nr and ng are    1 and   15
  mklocl_recipspace : will add potential with strength vprtrb(:)=   0.0000000000000000        0.0000000000000000
  setvtr : istep,n1xccc,moved_rhor=           1           0           0
  scfcv : after setvtr, energies%e_hartree=   0.0000000000000000

 ITER STEP NUMBER     1
work done:                         0%
work done:-                        5%
work done:--                      10%
work done:---                     15%
work done:----                    20%
work done:-----                   25%
work done:------                  30%
work done:-------                 35%
work done:--------                40%
work done:---------               45%
work done:----------              50%
work done:-----------             55%
work done:------------            60%
work done:-------------           65%
work done:--------------          70%
work done:---------------         75%
work done:----------------        80%
work done:-----------------       85%
work done:------------------      90%
work done:-------------------     95%
work done:--------------------   100%
-P-0000  ipointlocal        3457
 - TRANSGRID NOT USED --
 -- fermisolverec ---------------------------------
 -- Results: --------------------------------------
 mu          =            NaN
 ETOT  1                   NaN       NaN 0.000E+00       NaN
 scprqt: <Vxc>=            NaN hartree

Simple mixing update:
  residual square of the potential :                       NaN

 ITER STEP NUMBER     2
work done:                         0%
work done:-                        5%
work done:--                      10%
work done:---                     15%
work done:----                    20%
work done:-----                   25%
work done:------                  30%
work done:-------                 35%
work done:--------                40%
work done:---------               45%
work done:----------              50%
work done:-----------             55%
work done:------------            60%
work done:-------------           65%
work done:--------------          70%
work done:---------------         75%
work done:----------------        80%
work done:-----------------       85%
work done:------------------      90%
work done:-------------------     95%
work done:--------------------   100%
-P-0000  ipointlocal        3457
 - TRANSGRID NOT USED --
 -- fermisolverec ---------------------------------
 -- Results: --------------------------------------
 mu          =            NaN
 potmin      =***************
 <V_eff>     =            NaN
 entropy     =            NaN
 -omega/T    =            NaN
 eigenvalues =            NaN
 kinetic     =            NaN
 non-loc ene =   0.0000000000
 ETOT  2                   NaN       NaN 0.000E+00       NaN
 scprqt: <Vxc>=            NaN hartree

 Components of total free energy (in Hartree) :

    Kinetic energy  =                   NaN
    Hartree energy  =                   NaN
    XC energy       =                   NaN
    Ewald energy    =                   NaN
    PspCore energy  = -3.06013460762681E-04
    Loc. psp. energy=                   NaN
    NL   psp  energy=  0.00000000000000E+00
    >>>>> Internal E=                   NaN

    -kT*entropy     =                   NaN
    >>>>>>>>> Etotal=                   NaN

 Other information on the energy :
    Total energy(eV)=                   NaN ; Band energy (Ha)=                NaN
 kinstr tf                       NaN
  strhar : before mpi_comm, harstr=                       NaN                       NaN                       NaN                       NaN                       NaN                       NaN
  strhar : after mpi_comm, harstr=                       NaN                       NaN                       NaN                       NaN                       NaN                       NaN
  strhar : ehart,ucvol=                       NaN   362.27790874188213

[...]

 ioarr: writing density data
 ioarr: file name is t75o_TIM2_DEN

 m_wffile.F90:271:COMMENT
 ioarr: data written to disk file t75o_TIM2_DEN
-P-0000  leave_test : synchronization done...
 ihist @ mover           2
 mxhist @ mover           2
 ihist @ write_md_hist           2
 mxhist @ write_md_hist           2
 OPEN NETCDF FILE

---OUTPUT-----------------------------------------------------------------------

 Cartesian coordinates (xcart) [bohr]
                    NaN                   NaN                   NaN
                    NaN                   NaN                   NaN
                    NaN                   NaN                   NaN
                    NaN                   NaN                   NaN
 Reduced coordinates (xred)
                    NaN                   NaN                   NaN
                    NaN                   NaN                   NaN
                    NaN                   NaN                   NaN
                    NaN                   NaN                   NaN
 Cartesian forces (fcart) [Ha/bohr]; max,rms= 0.00000E+00         NaN (free atoms)
                    NaN                   NaN                   NaN
                    NaN                   NaN                   NaN
                    NaN                   NaN                   NaN
                    NaN                   NaN                   NaN
 Reduced forces (fred)
                    NaN                   NaN                   NaN
                    NaN                   NaN                   NaN
                    NaN                   NaN                   NaN
                    NaN                   NaN                   NaN
 Cartesian velocities (vel) [bohr*Ha/hbar]; max,rms= 3.69185E-02 2.08334E-02 (free atoms)
  -1.75051134717685E-02 -2.70512543399619E-02 -3.59948251631659E-03
   8.38146360852743E-03 -9.61972344460439E-03  2.26659088291983E-02
   3.69185151994053E-02  2.86787653220175E-03 -7.03232723315978E-03
  -2.77948653361642E-02  3.38031012523645E-02 -1.20340990797219E-02
 Kinetic energy of ions (ekin) [Ha]=  1.90008925183712E+01
 Total energy (etotal) [Ha]=                   NaN

 Difference of energy with previous step (new-old):
            Absolute (Ha)=         NaN
            Relative     =         NaN
 Geometry Optimization Precondition:           0

 ----iterations are completed or convergence reached----

 WRITE_EIG option           1

 === Gap info ===
 ReportGap : WARNING - not enough states to calculate the band gap.

 Cartesian components of stress tensor (hartree/bohr^3)
  sigma(1 1)=             NaN  sigma(3 2)=             NaN
  sigma(2 2)=             NaN  sigma(3 1)=             NaN
  sigma(3 3)=             NaN  sigma(2 1)=             NaN

-Cartesian components of stress tensor (GPa)         [Pressure=         NaN GPa]
- sigma(1 1)=             NaN  sigma(3 2)=             NaN
- sigma(2 2)=             NaN  sigma(3 1)=             NaN
- sigma(3 3)=             NaN  sigma(2 1)=             NaN

== END DATASET(S) ==============================================================

 -outvars: echo values of variables after computation  --------

 These variables are accessible in NetCDF format (t75o_OUT.nc)

        accesswff           1
            acell      7.1287592924E+00  7.1287592924E+00  7.1287592924E+00 Bohr
              amu      4.00260200E+00
        boxcutmin      1.00000000E+00
            dtion      5.00000000E+01
             ecut      5.00000000E+00 Hartree
           enunit           2
           etotal                   NaN
      fft_opt_lob           2
            fcart                   NaN               NaN               NaN
                                    NaN               NaN               NaN
                                    NaN               NaN               NaN
                                    NaN               NaN               NaN
           ionmov          12
           iprcch           0
           istwfk        1
           kptopt           0
          mdftemp      1.00000000E+06
          mditemp      1.00000000E+06
P           mkmem           1
            natom           4
            nband          20
            ngfft          24      24      24
             nkpt           1
            nline           5
           npband           4
            nstep          20
             nsym           1
            ntime           2
           ntypat           1
              occ      2.000000  2.000000  2.000000  2.000000  0.000000  0.000000
                       0.000000  0.000000  0.000000  0.000000  0.000000  0.000000
                       0.000000  0.000000  0.000000  0.000000  0.000000  0.000000
                       0.000000  0.000000
           occopt           3
        paral_kgb           1
           prtvol           3
            prtwf           0
         recnpath        1000
          recnrec          50
        recptrott          15
        rectolden      1.00000000E-02
          spgroup           1
           strten                   NaN               NaN               NaN
                                    NaN               NaN               NaN
        tfkinfunc           2
           timopt          -1
           toldfe      1.00000000E-20 Hartree
           tsmear      3.16682970E+00 Hartree
            typat      1  1  1  1
           useylm           1
              vel     -1.7505113472E-02 -2.7051254340E-02 -3.5994825163E-03
                       8.3814636085E-03 -9.6197234446E-03  2.2665908829E-02
                       3.6918515199E-02  2.8678765322E-03 -7.0323272332E-03
                      -2.7794865336E-02  3.3803101252E-02 -1.2034099080E-02
         wfoptalg           4
            znucl        2.00000

 Suggested references for the acknowledgment of ABINIT usage.

 [1] Large scale ab initio calculations based on three levels of parallelization
 F. Bottin, S. Leroux, A. Knyazev, G. Zerah, Comput. Mat. Science 42, 329, (2008).
 Comment : in case paral_kgb is non-zero. Strong suggestion to cite this paper in your publications.

 [2] ABINIT : First-principles approach of materials and nanosystem properties.
 X. Gonze, B. Amadon, P.-M. Anglade, J.-M. Beuken, F. Bottin, P. Boulanger, F. Bruneval,
 D. Caliste, R. Caracas, M. Cote, T. Deutsch, L. Genovese, Ph. Ghosez, M. Giantomassi
 S. Goedecker, D.R. Hamann, P. Hermet, F. Jollet, G. Jomard, S. Leroux, M. Mancini, S. Mazevet,
 M.J.T. Oliveira, G. Onida, Y. Pouillon, T. Rangel, G.-M. Rignanese, D. Sangalli, R. Shaltaf,
 M. Torrent, M.J. Verstraete, G. Zerah, J.W. Zwanziger
 Computer Phys. Comm. 180, 2582-2615 (2009).
 Comment : the third generic paper describing the ABINIT project.
 Note that a version of this paper, that is not formatted for Computer Phys. Comm.
 The licence allows the authors to put it on the Web.

 [3] A brief introduction to the ABINIT software package.
 X. Gonze, G.-M. Rignanese, M. Verstraete, J.-M. Beuken, Y. Pouillon, R. Caracas, F. Jollet,
 M. Torrent, G. Zerah, M. Mikami, Ph. Ghosez, M. Veithen, J.-Y. Raty, V. Olevano, F. Bruneval,
 L. Reining, R. Godby, G. Onida, D.R. Hamann, and D.C. Allan.
 Z. Kristallogr. 220, 558-562 (2005).
 Comment : the second generic paper describing the ABINIT project. Note that this paper
 should be cited especially if you are using the GW part of ABINIT, as several authors
 of this part are not in the list of authors of the first or third paper.
 Note that it should not redistributed (Copyright by Oldenburg Wissenshaftverlag,
 the licence allows the authors to put it on the Web).

 And optionally :

 [4] First-principles computation of material properties : the ABINIT software project.
 X. Gonze, J.-M. Beuken, R. Caracas, F. Detraux, M. Fuchs, G.-M. Rignanese, L. Sindic,
 M. Verstraete, G. Zerah, F. Jollet, M. Torrent, A. Roy, M. Mikami, Ph. Ghosez, J.-Y. Raty, D.C. Allan.
 Comment : the original paper describing the ABINIT project.

 [5] Fast radix 2, 3, 4 and 5 kernels for Fast Fourier Transformations
 on computers with overlapping multiply-add instructions.
 S. Goedecker, SIAM J. on Scientific Computing 18, 1605 (1997).
  testfi : enter
 filnam(1)="t75.in"
 nam="testin_1.in"
 nam="testin_2.in"
 nam="testin_3.in"
 nam="testin_bigdft.in"
 nam="testin_etsf_io.in"
 nam="testin_wannier90.in"
  testfi : testin=            0

 Calculation completed.
.Delivered    6 WARNINGs and  13 COMMENTs to log file.