.Version 8.10.3 of ABINIT

 ABINIT is a project of the Universite Catholique de Louvain,
 Corning Inc. and other collaborators, see ~abinit/doc/developers/contributors.txt .
 acknowledgments of the ABINIT effort.

.Starting date : Fri 24 Jan 2020.
- ( at 17h56 )

- input  file    -> in2se3.in
- output file    -> in2se3.out
- root for input  files -> input_data/idat
- root for output files -> out_data/odat

 Symmetries : space group P3 m 1 (#156); Bravais hP (primitive hexag.)
     intxc =       0    ionmov =       3      iscf =       7    lmnmax =       6
     lnmax =       6     mgfft =     360  mpssoang =       3    mqgrid =   17939
     natom =       5  nloc_mem =       1    nspden =       1   nspinor =       1
    nsppol =       1      nsym =       6    n1xccc =    2501    ntypat =       2
    occopt =       1   xclevel =       2
-    mband =          38        mffmem =           1         mkmem =           1
       mpw =        1884          nfft =       81000          nkpt =           7
  Rough estimation (10% accuracy) of disk space for files :

------------- Echo of variables that govern the present computation ------------
-
- outvars: echo of selected default values
-   iomode0 =  0 , fftalg0 =112 , wfoptalg0 =  0
-
- outvars: echo of global parameters not present in the input file
-  max_nthreads =    0
-
 -outvars: echo values of preprocessed input variables --------
-          iomode           1
            acell      1.0000000000E+00  1.0000000000E+00  1.0000000000E+00 Bohr
              amu      1.14820000E+02  7.89600000E+01
        autoparal           1
     densfor_pred           6
          dilatmx      1.10000000E+00
             ecut      3.00000000E+01 Hartree
           ecutsm      5.00000000E-01 Hartree
-          fftalg         401
           ionmov           3
           istwfk        1    0    0    1    0    0    0
              ixc          11
              kpt      0.00000000E+00  0.00000000E+00  5.00000000E-01
                       1.66666667E-01  0.00000000E+00  5.00000000E-01
                       3.33333333E-01  0.00000000E+00  5.00000000E-01
                       5.00000000E-01  0.00000000E+00  5.00000000E-01
                       1.66666667E-01  1.66666667E-01  5.00000000E-01
                       3.33333333E-01  1.66666667E-01  5.00000000E-01
                       3.33333333E-01  3.33333333E-01  5.00000000E-01
         kptrlatt        6    0    0      0    6    0      0    0    1
          kptrlen      4.56482243E+01
P           mkmem           1
            natom           5
            nband          38
            ngfft          45      45     360
             nkpt           7
-          npband           2
-           npfft           9
-           npkpt           7
            nstep         300
             nsym           6
            ntime          20
           ntypat           2
              occ      2.000000  2.000000  2.000000  2.000000  2.000000  2.000000
                       2.000000  2.000000  2.000000  2.000000  2.000000  2.000000
                       2.000000  2.000000  2.000000  2.000000  2.000000  2.000000
                       2.000000  2.000000  2.000000  2.000000  2.000000  2.000000
                       2.000000  2.000000  2.000000  2.000000  2.000000  2.000000
                       2.000000  2.000000  2.000000  2.000000  2.000000  2.000000
                       2.000000  0.000000
           ortalg          -2
        paral_kgb           1
            prtwf           0
            rprim      6.5887536421E+00  3.8040186889E+00  0.0000000000E+00
                      -6.5887536421E+00  3.8040186889E+00  0.0000000000E+00
                       0.0000000000E+00  0.0000000000E+00  6.6140414362E+01
           shiftk      0.00000000E+00  0.00000000E+00  5.00000000E-01
          spgroup         156
           symrel      1  0  0   0  1  0   0  0  1      -1  0  0   1  1  0   0  0  1
                       0  1  0  -1 -1  0   0  0  1       0 -1  0  -1  0  0   0  0  1
                      -1 -1  0   1  0  0   0  0  1       1  1  0   0 -1  0   0  0  1
           toldfe      1.00000000E-10 Hartree
           tolmxf      5.00000000E-06
            typat      1  1  2  2  2
         wfoptalg         114
              wtk        0.02778    0.16667    0.16667    0.08333    0.16667    0.33333
                         0.05556
           xangst      1.1622060868E+00  2.0129999912E+00  4.9069999786E+00
                       1.1622060868E+00  2.0129999912E+00  1.1507999950E+01
                       1.1622060868E+00  2.0129999912E+00  1.9074999917E+00
                      -1.1622060868E+00  2.0129999912E+00  6.3349999723E+00
                       0.0000000000E+00  0.0000000000E+00  9.8769999568E+00
            xcart      2.1962512140E+00  3.8040186889E+00  9.2728860935E+00
                       2.1962512140E+00  3.8040186889E+00  2.1746968242E+01
                       2.1962512140E+00  3.8040186889E+00  3.6046525827E+00
                      -2.1962512140E+00  3.8040186889E+00  1.1971415000E+01
                       0.0000000000E+00  0.0000000000E+00  1.8664824933E+01
             xred      6.6666666667E-01  3.3333333333E-01  1.4020000000E-01
                       6.6666666667E-01  3.3333333333E-01  3.2880000000E-01
                       6.6666666667E-01  3.3333333333E-01  5.4500000000E-02
                       3.3333333333E-01  6.6666666667E-01  1.8100000000E-01
                       0.0000000000E+00  0.0000000000E+00  2.8220000000E-01
            znucl       49.00000   34.00000

 chkinp: Checking input parameters for consistency.

== DATASET  1 ==================================================================
-   nproc =  126

 Real(R)+Recip(G) space primitive vectors, cartesian coordinates (Bohr,Bohr^-1):
 R(1)=  6.5887536  3.8040187  0.0000000  G(1)=  0.0758869  0.1314399  0.0000000
 R(2)= -6.5887536  3.8040187  0.0000000  G(2)= -0.0758869  0.1314399  0.0000000
 R(3)=  0.0000000  0.0000000 66.1404144  G(3)=  0.0000000  0.0000000  0.0151193
 Unit cell volume ucvol=  3.3154526E+03 bohr^3
 Angles (23,13,12)=  9.00000000E+01  9.00000000E+01  1.20000000E+02 degrees

 getcut: wavevector=  0.0000  0.0000  0.0000  ngfft=  45  45 360
         ecut(hartree)=     36.300   => boxcut(ratio)=   2.00686

--- Pseudopotential description ------------------------------------------------
- pspini: atom type   1  psp file is ../../In.psp8
- pspatm: opening atomic psp file    ../../In.psp8
- In    ONCVPSP-3.2.3.1  r_core=   2.10853   2.37566   1.87143
- 49.00000  13.00000    170510                znucl, zion, pspdat
    8   11    2    4       600   0.00000      pspcod,pspxc,lmax,lloc,mmax,r2well
    5.99000000000000    5.00000000000000    0.00000000000000   rchrg,fchrg,qchrg
     nproj     2     2     2
     extension_switch     1
  pspatm : epsatm=   25.32675270
         --- l  ekb(1:nproj) -->
             0   12.954319    1.927713
             1    5.974470    1.008552
             2   -4.045051   -1.239133
 pspatm: atomic psp has been read  and splines computed

- pspini: atom type   2  psp file is ../../Se.psp8
- pspatm: opening atomic psp file    ../../Se.psp8
- Se    ONCVPSP-3.2.3.1  r_core=   1.81943   1.50330   1.90835
- 34.00000  16.00000    170504                znucl, zion, pspdat
    8   11    2    4       600   0.00000      pspcod,pspxc,lmax,lloc,mmax,r2well
    5.99000000000000    5.00000000000000    0.00000000000000   rchrg,fchrg,qchrg
     nproj     2     2     2
     extension_switch     1
  pspatm : epsatm=   29.53332103
         --- l  ekb(1:nproj) -->
             0    8.980642    1.012006
             1    6.803691    1.279695
             2   -9.256960   -3.748206
 pspatm: atomic psp has been read  and splines computed

   1.03047567E+04                                ecore*ucvol(ha*bohr**3)

_setup2: Arith. and geom. avg. npw (full set) are    1863.500    1863.475

=== [ionmov= 3] Broyden-Fletcher-Goldfard-Shanno method (forces,Tot energy)

--- Iteration: ( 1/20) Internal Cycle: (1/1)

---SELF-CONSISTENT-FIELD CONVERGENCE--------------------------------------------

     iter   Etot(hartree)      deltaE(h)  residm     vres2
 ETOT  1  -429.94662708732    -4.299E+02 3.277E-01 9.931E+06
 ETOT  2  -486.35463970030    -5.641E+01 1.358E-02 3.742E+05
 ETOT  3  -494.14437126102    -7.790E+00 1.086E-03 2.255E+05
 ETOT  4  -494.78844733329    -6.441E-01 1.648E-03 3.266E+05
 ETOT  5  -494.59799062743     1.905E-01 5.573E-03 5.040E+05
 ETOT  6  -495.71938644612    -1.121E+00 8.169E-04 1.425E+05
 ETOT  7  -495.86057481869    -1.412E-01 2.295E-04 1.671E+05
 ETOT  8  -496.28453685073    -4.240E-01 1.107E-04 2.322E+04
 ETOT  9  -496.34111102372    -5.657E-02 5.527E-05 1.507E+04
 ETOT 10  -496.35205160180    -1.094E-02 4.511E-05 2.701E+04
 ETOT 11  -496.40286481337    -5.081E-02 1.780E-04 6.973E+03
 ETOT 12  -496.40753373155    -4.669E-03 3.975E-05 5.161E+03
 ETOT 13  -496.40971183412    -2.178E-03 1.024E-04 4.336E+03
 ETOT 14  -496.41120112612    -1.489E-03 4.112E-05 3.681E+03
 ETOT 15  -496.41163815849    -4.370E-04 7.218E-05 3.450E+03
 ETOT 16  -496.40782357212     3.815E-03 2.618E-05 4.845E+03
 ETOT 17  -496.41054495020    -2.721E-03 5.322E-05 3.990E+03
 ETOT 18  -496.39546360161     1.508E-02 1.352E-05 9.873E+03
 ETOT 19  -496.40693118042    -1.147E-02 3.505E-05 5.059E+03
 ETOT 20  -496.40451995856     2.411E-03 8.050E-06 6.047E+03
 ETOT 21  -496.40788427261    -3.364E-03 1.961E-05 4.644E+03
 ETOT 22  -496.41088659792    -3.002E-03 4.726E-06 3.315E+03
 ETOT 23  -496.41396344797    -3.077E-03 1.123E-05 1.949E+03
 ETOT 24  -496.41374919253     2.143E-04 2.544E-06 2.041E+03
 ETOT 25  -496.41441326005    -6.641E-04 5.491E-06 1.865E+03
 ETOT 26  -496.41165451999     2.759E-03 1.197E-06 2.916E+03
 ETOT 27  -496.41217395065    -5.194E-04 2.917E-06 2.675E+03
 ETOT 28  -496.41214960095     2.435E-05 6.206E-07 2.624E+03
 ETOT 29  -496.41329662607    -1.147E-03 1.489E-06 2.146E+03
 ETOT 30  -496.41250543821     7.912E-04 3.117E-07 2.470E+03
 ETOT 31  -496.40890323923     3.602E-03 1.302E-06 4.143E+03
 ETOT 32  -496.41213048869    -3.227E-03 2.601E-07 2.606E+03
 ETOT 33  -496.41272230551    -5.918E-04 3.871E-07 2.336E+03
 ETOT 34  -496.41495199764    -2.230E-03 7.864E-08 1.359E+03
 ETOT 35  -496.41462672256     3.253E-04 1.777E-07 1.487E+03
 ETOT 36  -496.41502186271    -3.951E-04 3.888E-08 1.329E+03
 ETOT 37  -496.40856290685     6.459E-03 4.214E-07 3.987E+03
 ETOT 38  -496.41233953057    -3.777E-03 2.268E-08 2.406E+03
 ETOT 39  -496.41502911778    -2.690E-03 5.311E-08 1.246E+03
 ETOT 40  -496.41531878455    -2.897E-04 5.321E-08 1.071E+03
 ETOT 41  -496.41479181200     5.270E-04 1.636E-08 1.337E+03
 ETOT 42  -496.41194532263     2.846E-03 4.243E-07 2.464E+03
 ETOT 43  -496.41499032628    -3.045E-03 3.766E-08 1.183E+03
 ETOT 44  -496.41528360421    -2.933E-04 6.885E-09 1.050E+03
 ETOT 45  -496.41489147798     3.921E-04 1.436E-08 1.202E+03
 ETOT 46  -496.41502758286    -1.361E-04 2.458E-07 1.114E+03
 ETOT 47  -496.41524922096    -2.216E-04 3.829E-08 9.790E+02
 ETOT 48  -496.41542288187    -1.737E-04 1.985E-09 9.105E+02
 ETOT 49  -496.41483510320     5.878E-04 1.933E-08 1.131E+03
 ETOT 50  -496.41490187220    -6.677E-05 1.514E-09 1.109E+03
[...]

--- Iteration: (20/20) Internal Cycle: (1/1)

---SELF-CONSISTENT-FIELD CONVERGENCE--------------------------------------------

     iter   Etot(hartree)      deltaE(h)  residm     vres2
 ETOT  1   1444.4799548836     1.444E+03 9.784E+06 5.369E+09
 ETOT  2   1700.4471193551     2.560E+02 7.203E+06 5.125E+09
 ETOT  3   1618.0754751009    -8.237E+01 3.550E+06 4.811E+09
 ETOT  4   1893.5140060559     2.754E+02 1.406E+07 4.526E+09
 ETOT  5   1738.3261723155    -1.552E+02 1.036E+07 3.976E+09
 ETOT  6   1646.7244322114    -9.160E+01 8.907E+06 3.604E+09
 ETOT  7   1487.9482332399    -1.588E+02 1.622E+06 3.265E+09
 ETOT  8   1267.1719371853    -2.208E+02 7.121E+06 3.084E+09
 ETOT  9   898.26488733432    -3.689E+02 9.610E+06 3.069E+09
 ETOT 10   586.25320069002    -3.120E+02 1.219E+06 2.995E+09
 ETOT 11   440.08509275638    -1.462E+02 1.061E+06 2.813E+09
 ETOT 12   356.26528289800    -8.382E+01 1.625E+06 2.416E+09
 ETOT 13   233.39345292648    -1.229E+02 9.499E+05 1.825E+09
 ETOT 14   60.560983572010    -1.728E+02 5.019E+04 1.086E+09
 ETOT 15   18.564724680487    -4.200E+01 2.794E+05 7.988E+08
 ETOT 16  -23.564864647707    -4.213E+01 2.004E+04 5.227E+08
 ETOT 17   31.439748297762     5.500E+01 8.998E+04 4.549E+08
 ETOT 18  -31.327519567910    -6.277E+01 1.989E+05 1.841E+08
 ETOT 19  -36.905761643871    -5.578E+00 2.143E+05 1.632E+08
 ETOT 20  -13.249477254170     2.366E+01 2.205E+05 3.320E+07
 ETOT 21   25.863303207117     3.911E+01 3.028E+05 1.429E+07
 ETOT 22   14.597100806015    -1.127E+01 1.241E+06 2.050E+07
 ETOT 23   43.190637142006     2.859E+01 7.354E+05 5.345E+06
 ETOT 24   36.443302456215    -6.747E+00 1.828E+05 6.971E+06
 ETOT 25   53.993517676047     1.755E+01 1.737E+05 2.482E+06
 ETOT 26   53.032548608569    -9.610E-01 1.952E+05 9.968E+06
 ETOT 27   43.587310631784    -9.445E+00 1.943E+06 9.802E+06
 ETOT 28   36.413764948687    -7.174E+00 4.927E+05 6.728E+06
 ETOT 29   35.307492826097    -1.106E+00 3.662E+05 2.001E+06
 ETOT 30   18.711353172293    -1.660E+01 6.641E+05 1.810E+07
 ETOT 31   34.901288972818     1.619E+01 7.481E+04 1.284E+07
 ETOT 32   80.754819094289     4.585E+01 6.823E+05 2.265E+07
 ETOT 33   54.193583043428    -2.656E+01 8.118E+05 1.298E+07
 ETOT 34   32.124431957882    -2.207E+01 1.100E+05 8.028E+06
 ETOT 35  -26.709424443213    -5.883E+01 1.550E+05 3.573E+06
 ETOT 36   92.227960833397     1.189E+02 8.375E+05 5.608E+06
 ETOT 37   56.354445363549    -3.587E+01 1.026E+06 1.831E+06
 ETOT 38   133.65373858230     7.730E+01 3.273E+05 5.754E+06
 ETOT 39   72.666979891858    -6.099E+01 2.335E+05 8.883E+06
 ETOT 40   3.7959106214523    -6.887E+01 1.788E+05 7.021E+06
 ETOT 41  -24.729951067120    -2.853E+01 6.438E+04 6.021E+06
 ETOT 42   22.811425514456     4.754E+01 3.859E+05 9.399E+06
 ETOT 43  -22.187717032862    -4.500E+01 1.961E+05 4.406E+06
 ETOT 44  -2.6216744028209     1.957E+01 3.561E+05 1.365E+07
 ETOT 45  -35.273139201301    -3.265E+01 3.915E+04 7.397E+06
 ETOT 46  -48.774778938382    -1.350E+01 8.508E+04 5.462E+06
 ETOT 47  -13.018939813806     3.576E+01 2.652E+05 2.396E+06
 ETOT 48   29.777063943909     4.280E+01 7.927E+05 4.470E+06
 ETOT 49  -41.766847876251    -7.154E+01 2.941E+04 2.275E+06
 ETOT 50  -23.276948236903     1.849E+01 3.477E+04 8.286E+06
 ETOT 51   26.183384131111     4.946E+01 8.621E+04 1.857E+07
 ETOT 52   28.368655429273     2.185E+00 5.534E+04 1.884E+07
 ETOT 53   44.367985854520     1.600E+01 4.214E+04 1.675E+07
 ETOT 54 -0.95518292655814    -4.532E+01 8.287E+04 5.930E+06
 ETOT 55  -18.796665975508    -1.784E+01 1.281E+05 6.813E+06
 ETOT 56   5.4696002427853     2.427E+01 2.604E+04 1.215E+07
 ETOT 57  -3.9705926650687    -9.440E+00 2.889E+05 1.198E+07
 ETOT 58   18.899415950312     2.287E+01 3.077E+04 1.483E+07
 ETOT 59   56.952758738272     3.805E+01 4.965E+04 1.645E+07
 ETOT 60   37.457976091190    -1.949E+01 1.026E+06 8.728E+06
[...]
 ETOT  286   787.23596559587     2.271E+02 3.502E+06 6.092E+06
 ETOT  287   565.39364830043    -2.218E+02 6.082E+05 9.643E+06
 ETOT  288   619.77045696916     5.438E+01 3.297E+06 5.442E+06
 ETOT  289   421.07762730906    -1.987E+02 3.963E+06 7.259E+06
 ETOT  290   882.03662242167     4.610E+02 1.279E+06 5.836E+06
 ETOT  291   882.39758774068     3.610E-01 2.358E+07 3.884E+06
 ETOT  292   604.90869833102    -2.775E+02 4.419E+06 5.270E+06
 ETOT  293   312.43264551027    -2.925E+02 2.075E+06 1.509E+06
 ETOT  294   625.45857057431     3.130E+02 6.310E+05 2.642E+06
 ETOT  295   799.99221237550     1.745E+02 1.128E+07 4.110E+06
 ETOT  296   321.97360110828    -4.780E+02 1.946E+06 3.842E+06
 ETOT  297   936.61897076333     6.146E+02 1.182E+07 5.043E+06
 ETOT  298   468.22544251337    -4.684E+02 3.253E+06 3.062E+06
 ETOT  299   730.76427720114     2.625E+02 4.455E+06 9.874E+05
 ETOT  300   503.57930317233    -2.272E+02 7.766E+05 4.647E+06

[...]

 scprqt:  WARNING -
  nstep=  300 was not enough SCF cycles to converge;
  maximum energy difference=  2.272E+02 exceeds toldfe=  1.000E-10

 Integrated electronic density in atomic spheres:
 Atom  Sphere_radius  Integrated_density
    1        2.00000          2.52162822
    2        2.00000          2.96996702
    3        2.00000          1.84927756
    4        2.00000          1.88173825
    5        2.00000          2.83288931

---OUTPUT-----------------------------------------------------------------------

 Cartesian coordinates (xcart) [bohr]
  2.19625121403333E+00  3.80401868890000E+00 -1.42502703657846E+01
  2.19625121403333E+00  3.80401868890000E+00  5.57725844682193E+01
  2.19625121403333E+00  3.80401868890000E+00 -1.87470999058589E+01
 -2.19625121403333E+00  3.80401868890000E+00  1.18767701302624E+01
 -7.31498599704228E-16 -7.03884855753530E-16  3.06087625165606E+01
 Reduced coordinates (xred)
  6.66666666666667E-01  3.33333333333333E-01 -2.15454809336559E-01
  6.66666666666667E-01  3.33333333333333E-01  8.43245162678407E-01
  6.66666666666667E-01  3.33333333333333E-01 -2.83443944020067E-01
  3.33333333333333E-01  6.66666666666667E-01  1.79569031201952E-01
 -1.48029736616688E-16 -3.70074341541719E-17  4.62784559363024E-01
 Cartesian forces (fcart) [Ha/bohr]; max,rms= 1.63572E+01 5.13867E+00 (free atoms)
  0.00000000000000E+00  0.00000000000000E+00  9.90640421562391E+00
  0.00000000000000E+00  0.00000000000000E+00  5.06714687811009E+00
  0.00000000000000E+00  0.00000000000000E+00 -1.63571537149378E+01
  0.00000000000000E+00  0.00000000000000E+00  2.06350775905436E+00
  0.00000000000000E+00  0.00000000000000E+00 -6.79905137850562E-01
 Reduced forces (fred)
  0.00000000000000E+00  0.00000000000000E+00 -6.55213679657858E+02
  0.00000000000000E+00  0.00000000000000E+00 -3.35143194150819E+02
  0.00000000000000E+00  0.00000000000000E+00  1.08186892448731E+03
  0.00000000000000E+00  0.00000000000000E+00 -1.36481258222855E+02
  0.00000000000000E+00  0.00000000000000E+00  4.49692075442222E+01
 Total energy (etotal) [Ha]=  5.03579303172325E+02

 Difference of energy with previous step (new-old):
           Absolute (Ha)= 7.09840E+01
           Relative     = 1.51647E-01

 fconv : WARNING -
  ntime=   20 was not enough Broyd/MD steps to converge gradients:
  max grad (force/stress) = 1.6357E+01 > tolmxf= 5.0000E-06 ha/bohr (free atoms)

 ----iterations are completed or convergence reached----

 Mean square residual over all n,k,spin=   11.814E+03; max=  77.657E+04
 reduced coordinates (array xred) for    5 atoms
       0.666666666667      0.333333333333     -0.215454809337
       0.666666666667      0.333333333333      0.843245162678
       0.666666666667      0.333333333333     -0.283443944020
       0.333333333333      0.666666666667      0.179569031202
      -0.000000000000     -0.000000000000      0.462784559363
 rms dE/dt=  3.4521E+02; max dE/dt=  9.7713E+02; dE/dt below (all hartree)
    1       0.000000000000      0.000000000000   -759.955106349708
    2       0.000000000000      0.000000000000   -439.884620842669
    3       0.000000000000      0.000000000000    977.127497795460
    4       0.000000000000      0.000000000000   -241.222684914705
    5       0.000000000000      0.000000000000    -59.772219147628

 cartesian coordinates (angstrom) at end:
    1      1.16220608680456     2.01299999121629    -7.54091829381870
    2      1.16220608680456     2.01299999121629    29.51358056474226
    3      1.16220608680456     2.01299999121629    -9.92053799734029
    4     -1.16220608680456     2.01299999121629     6.28491606459736
    5     -0.00000000000000    -0.00000000000000    16.19745950690777

 cartesian forces (hartree/bohr) at end:
    1      0.00000000000000     0.00000000000000     9.90640421562391
    2      0.00000000000000     0.00000000000000     5.06714687811009
    3      0.00000000000000     0.00000000000000   -16.35715371493780
    4      0.00000000000000     0.00000000000000     2.06350775905436
    5      0.00000000000000     0.00000000000000    -0.67990513785056
 frms,max,avg= 5.1386745E+00 1.6357154E+01   0.000E+00  0.000E+00  1.584E+00 h/b

 cartesian forces (eV/Angstrom) at end:
    1      0.00000000000000     0.00000000000000   509.40774358353292
    2      0.00000000000000     0.00000000000000   260.56314697046076
    3      0.00000000000000     0.00000000000000  -841.11859197446290
    4      0.00000000000000     0.00000000000000   106.10982638373906
    5      0.00000000000000     0.00000000000000   -34.96212496326980
 frms,max,avg= 2.6424125E+02 8.4111859E+02   0.000E+00  0.000E+00  8.143E+01 e/A
 length scales=  1.000000000000  1.000000000000  1.000000000000 bohr
              =  0.529177208590  0.529177208590  0.529177208590 angstroms
 prteigrs : about to open file out_data/odat_EIG
 Fermi (or HOMO) energy (hartree) = 105.32910   Average Vxc (hartree)=  -0.30104
 Eigenvalues (hartree) for nkpt=   7  k points:
 kpt#   1, nband= 38, wtk=  0.02778, kpt=  0.0000  0.0000  0.5000 (reduced coord)
 -44.56849  -39.85235  -30.52666  -24.61203  -22.35088  -19.48332  -17.10661  -14.84030
 -14.00657  -13.12627  -12.56651  -12.06133  -11.47721  -11.28420  -10.76246  -10.61438
 -10.25112   -9.86989   -9.65697   -9.31133   -9.02317   -8.44907   -8.19635   -7.85854
  -7.41110   -6.97145   -6.82835   -6.57966   -6.05183   -5.71807   -5.16654   -4.41172
  -3.94440   -3.46692   -2.81663   -1.22019   -0.94553    1.45340
 prteigrs : prtvol=0 or 1, do not print more k-points.

 Components of total free energy (in Hartree) :

    Kinetic energy  =  6.63868906843205E+02
    Hartree energy  =  2.55393337719564E+02
    XC energy       = -7.39205797270342E+01
    Ewald energy    =  1.65075221956570E+02
    PspCore energy  =  3.10809956569799E+00
    Loc. psp. energy= -5.26054570978029E+02
    NL   psp  energy=  1.61088877923520E+01
    >>>>>>>>> Etotal=  5.03579303172325E+02

 Other information on the energy :
    Total energy(eV)=  1.37030897225735E+04 ; Band energy (Ha)=  -5.8362550959E+03
 rms coord change=  1.8938E-01   atom, delta coord (reduced):
     1        0.000000000000      0.000000000000     -0.355654809337
     2        0.000000000000      0.000000000000      0.514445162678
     3        0.000000000000      0.000000000000     -0.337943944020
     4       -0.000000000000      0.000000000000     -0.001430968798
     5       -0.000000000000     -0.000000000000      0.180584559363

 Cartesian components of stress tensor (hartree/bohr^3)
  sigma(1 1)= -2.96872011E+02  sigma(3 2)=  0.00000000E+00
  sigma(2 2)= -2.96872011E+02  sigma(3 1)=  0.00000000E+00
  sigma(3 3)= -2.45931823E+02  sigma(2 1)=  3.74500620E-15

-Cartesian components of stress tensor (GPa)         [Pressure=  8.2347E+06 GPa]
- sigma(1 1)= -8.73427465E+06  sigma(3 2)=  0.00000000E+00
- sigma(2 2)= -8.73427465E+06  sigma(3 1)=  0.00000000E+00
- sigma(3 3)= -7.23556283E+06  sigma(2 1)=  1.10181868E-10

== END DATASET(S) ==============================================================

 -outvars: echo values of variables after computation  --------
-          iomode           1
            acell      1.0000000000E+00  1.0000000000E+00  1.0000000000E+00 Bohr
              amu      1.14820000E+02  7.89600000E+01
        autoparal           1
     densfor_pred           6
          dilatmx      1.10000000E+00
             ecut      3.00000000E+01 Hartree
           ecutsm      5.00000000E-01 Hartree
           etotal      5.0357930317E+02
            fcart      0.0000000000E+00  0.0000000000E+00  9.9064042156E+00
                       0.0000000000E+00  0.0000000000E+00  5.0671468781E+00
                       0.0000000000E+00  0.0000000000E+00 -1.6357153715E+01
                       0.0000000000E+00  0.0000000000E+00  2.0635077591E+00
                       0.0000000000E+00  0.0000000000E+00 -6.7990513785E-01
-          fftalg         401
           ionmov           3
           istwfk        1    0    0    1    0    0    0
              ixc          11
              kpt      0.00000000E+00  0.00000000E+00  5.00000000E-01
                       1.66666667E-01  0.00000000E+00  5.00000000E-01
                       3.33333333E-01  0.00000000E+00  5.00000000E-01
                       5.00000000E-01  0.00000000E+00  5.00000000E-01
                       1.66666667E-01  1.66666667E-01  5.00000000E-01
                       3.33333333E-01  1.66666667E-01  5.00000000E-01
                       3.33333333E-01  3.33333333E-01  5.00000000E-01
         kptrlatt        6    0    0      0    6    0      0    0    1
          kptrlen      4.56482243E+01
P           mkmem           1
            natom           5
            nband          38
            ngfft          45      45     360
             nkpt           7
-          npband           2
-           npfft           9
-           npkpt           7
            nstep         300
             nsym           6
            ntime          20
           ntypat           2
              occ      2.000000  2.000000  2.000000  2.000000  2.000000  2.000000
                       2.000000  2.000000  2.000000  2.000000  2.000000  2.000000
                       2.000000  2.000000  2.000000  2.000000  2.000000  2.000000
                       2.000000  2.000000  2.000000  2.000000  2.000000  2.000000
                       2.000000  2.000000  2.000000  2.000000  2.000000  2.000000
                       2.000000  2.000000  2.000000  2.000000  2.000000  2.000000
                       2.000000  0.000000
           ortalg          -2
        paral_kgb           1
            prtwf           0
            rprim      6.5887536421E+00  3.8040186889E+00  0.0000000000E+00
                      -6.5887536421E+00  3.8040186889E+00  0.0000000000E+00
                       0.0000000000E+00  0.0000000000E+00  6.6140414362E+01
           shiftk      0.00000000E+00  0.00000000E+00  5.00000000E-01
          spgroup         156
           strten     -2.9687201114E+02 -2.9687201114E+02 -2.4593182315E+02
                       0.0000000000E+00  0.0000000000E+00  3.7450061966E-15
           symrel      1  0  0   0  1  0   0  0  1      -1  0  0   1  1  0   0  0  1
                       0  1  0  -1 -1  0   0  0  1       0 -1  0  -1  0  0   0  0  1
                      -1 -1  0   1  0  0   0  0  1       1  1  0   0 -1  0   0  0  1
           toldfe      1.00000000E-10 Hartree
           tolmxf      5.00000000E-06
            typat      1  1  2  2  2
         wfoptalg         114
              wtk        0.02778    0.16667    0.16667    0.08333    0.16667    0.33333
                         0.05556
           xangst      1.1622060868E+00  2.0129999912E+00 -7.5409182938E+00
                       1.1622060868E+00  2.0129999912E+00  2.9513580565E+01
                       1.1622060868E+00  2.0129999912E+00 -9.9205379973E+00
                      -1.1622060868E+00  2.0129999912E+00  6.2849160646E+00
                      -3.8709238708E-16 -3.7247982314E-16  1.6197459507E+01
            xcart      2.1962512140E+00  3.8040186889E+00 -1.4250270366E+01
                       2.1962512140E+00  3.8040186889E+00  5.5772584468E+01
                       2.1962512140E+00  3.8040186889E+00 -1.8747099906E+01
                      -2.1962512140E+00  3.8040186889E+00  1.1876770130E+01
                      -7.3149859970E-16 -7.0388485575E-16  3.0608762517E+01
             xred      6.6666666667E-01  3.3333333333E-01 -2.1545480934E-01
                       6.6666666667E-01  3.3333333333E-01  8.4324516268E-01
                       6.6666666667E-01  3.3333333333E-01 -2.8344394402E-01
                       3.3333333333E-01  6.6666666667E-01  1.7956903120E-01
                      -1.4802973662E-16 -3.7007434154E-17  4.6278455936E-01
            znucl       49.00000   34.00000

- Timing analysis has been suppressed with timopt=0

 Suggested references for the acknowledgment of ABINIT usage.

 Calculation completed.
.Delivered  21 WARNINGs and  20 COMMENTs to log file.